&CONTROL
  calculation = 'relax'
  etot_conv_thr =   1.0000000000d-04
  forc_conv_thr =   1.0000000000d-03
  outdir = '../out/'
  prefix = 'Br_interstitial'
  pseudo_dir = '../../pseudo/'
  verbosity = 'high'
/
&SYSTEM
  degauss =   1.4699723600d-02
  ecutrho =   400
  ecutwfc =   40
  ibrav = 0
  A =    8.24400
  nat = 41  ! add a Br
  ntyp = 3
  occupations = 'smearing'
  smearing = 'cold'
/
&ELECTRONS
  conv_thr =   1.0000000000d-06
  electron_maxstep = 200
  mixing_beta =   0.4
/
&ions
  ion_dynamics='bfgs'
/
&cell
  cell_dynamics='bfgs',
  press=0.0,
  press_conv_thr=0.5,
/
ATOMIC_SPECIES
Br     79.904 br_pbe_v1.4.uspp.F.UPF
Cs     132.9054519 cs_pbe_v1.uspp.F.UPF
Pb     207.2 pb_pbe_v1.uspp.F.UPF
ATOMIC_POSITIONS {crystal}
Pb            0.0000000000        0.5000000000        0.0000000000 ! from cspbbr3_vcrelax_output.out 
Pb            0.2500000987       -0.0000048750        0.4999961227
Pb            0.2499980414        0.4999925456        0.4999933701
Pb            0.0000000000        0.0000000000        0.0000000000
Pb            0.5000000000        0.5000000000       -0.0000000000
Pb            0.7499999013        0.0000048750        0.5000038773
Pb            0.7500019586        0.5000074544        0.5700066299 ! Pb 0.07 up
Pb            0.5000000000       -0.0000000000        0.0000000000
Cs            0.2753765914        0.2500003864        0.0051291804
Cs            0.4746212777        0.7500006304        0.5051292331
Cs            0.2246242361        0.7500003056        0.9948713757
Cs            0.0253765625        0.2500004767        0.4948736663
Cs            0.7753757639        0.2499996944        0.0051286243
Cs            0.9746234375        0.7499995233        0.5051263337
Cs            0.7246234086        0.7499996136        0.9948708196
Cs            0.5253787223        0.2499993696        0.4948707669
Br            0.7500019586        0.5000074544        0.4300066299 ! Br 0.07 down
Br            0.1457960631        0.4568213233        0.2079242556
Br            0.1042009105        0.9568225513        0.7079304282
Br            0.1042022235        0.5431762161        0.7079282936
Br            0.3542045760        0.9568217293        0.7920755860
Br            0.3542043361        0.5431763986        0.7920764646
Br            0.3957985721        0.0431772295        0.2920709634
Br            0.3957988481        0.4568216179        0.2920708258
Br            0.1457946142        0.0431767901        0.2079200808
Br            0.6457956639        0.4568236014        0.2079235354
Br            0.6042014279        0.9568227705        0.7079290366
Br            0.6042011519        0.5431783821        0.7079291742
Br            0.8542053858        0.9568232099        0.7920799192
Br            0.8542039369        0.5431786767        0.7920757444
Br            0.8957990895        0.0431774487        0.2920695718
Br            0.8957977765        0.4568237839        0.2920717064
Br            0.6457954240        0.0431782707        0.2079244140
Br            0.0100000271        0.7500028758        0.1004765240
Br            0.2399991079        0.2499959790        0.6004785446
Br            0.4900003254        0.2500019894        0.8995220602
Br            0.2599982132        0.7499945134        0.3995229004
Br            0.5099996746        0.7499980106        0.1004779398
Br            0.7400017868        0.2500054866        0.6004770996
Br            0.9899999729        0.2499971242        0.8995234760
Br            0.7600008921        0.7500040210        0.3995214554
K_POINTS gamma
CELL_PARAMETERS {alat}
   2.006879135  -0.000000063  -0.000000047                          ! from cspbbr3_vcrelax_output.out
  -0.000000061   1.451820419  -0.000000122
  -0.000000025  -0.000000090   1.047738860
