&CONTROL
  calculation = 'relax'
  etot_conv_thr =   1.0000000000d-04
  forc_conv_thr =   1.0000000000d-03
  outdir = './out/'
  prefix = 'cspbbr3'
  pseudo_dir = '../pseudo/'
  verbosity = 'high'
/
&SYSTEM
  degauss =   1.4699723600d-02
  ecutrho =   400
  ecutwfc =   40
  ibrav = 0
  A =    8.24400
  nat = 159
  ntyp = 3
  occupations = 'smearing'
  smearing = 'cold'
/
&ELECTRONS
  conv_thr =   1.0000000000d-06
  electron_maxstep = 200
  mixing_beta =   0.4
/
&ions
  ion_dynamics='bfgs'
/
&cell
  cell_dynamics='bfgs',
  press=0.0,
  press_conv_thr=0.5,
/
ATOMIC_SPECIES
Br     79.904 br_pbe_v1.4.uspp.F.UPF
Cs     132.9054519 cs_pbe_v1.uspp.F.UPF
Pb     207.2 pb_pbe_v1.uspp.F.UPF
ATOMIC_POSITIONS (crystal)
Pb           -0.0000001656        0.2499718893       -0.0000022164
Pb            0.2499958063       -0.0000000167        0.2500034803
Pb            0.2499977659        0.2499709495        0.2500034409
Pb            0.0000000000        0.0000000000        0.0000000000
Pb            0.5000023237        0.7500279531        0.0000008707
Pb            0.4999976763        0.2499720469       -0.0000008707
Pb            0.0000001504        0.7500312857        0.5000007909
Pb           -0.0000001504        0.2499687143        0.4999992091
Pb            0.5000031497        0.7500299702        0.5000008232
Pb            0.4999968503        0.2499700298        0.4999991768
Pb            0.0000001656        0.7500281107        0.0000022164
Pb            0.7500043491        0.5000007008        0.2500014743
Pb            0.7500029265       -0.0000022593        0.2500030112
Pb            0.2499956509        0.4999992992        0.7499985257
Pb            0.2499970735        0.0000022593        0.7499969888
Pb            0.7500027567        0.5000013311        0.7500014986
Pb            0.7500041937        0.0000000167        0.7499965197
Pb            0.2499972433        0.4999986689        0.2499985014
Pb            0.7500028347        0.7500303627        0.2500005046
Pb            0.7499992753        0.2499708506        0.2500032262
Pb            0.2500007247        0.7500291494        0.7499967738
Pb            0.2499971653        0.2499696373        0.7499994954
Pb            0.7500022341        0.7500290505        0.7499965591
Pb            0.7500003746        0.2499696734        0.7499999905
Pb            0.2499996254        0.7500303266        0.2500000095
Pb            0.5000000000        0.5000000000        0.0000000000
Pb            0.5000000000       -0.0000000000       -0.0000000000
Pb           -0.0000000000        0.5000000000        0.5000000000
Pb           -0.0000000000        0.0000000000        0.5000000000
Pb            0.5000000000        0.5000000000        0.5000000000
Pb            0.5000000000       -0.0000000000        0.5000000000
Pb           -0.0000000000        0.5000000000       -0.0000000000
Cs            0.2814064388        0.1249964759        0.0088123318
Cs            0.4685921187        0.3749955943        0.2588145317
Cs            0.2185913575        0.3749952141        0.4911846792
Cs            0.0314075608        0.1249956885        0.2411884441
Cs            0.7814078787        0.6250038894        0.0088145978
Cs            0.7814077582        0.1249961846        0.0088117090
Cs            0.2814078682        0.6250043913        0.5088152681
Cs            0.2814064967        0.1249958367        0.5088121380
Cs            0.7814086425        0.6250047859        0.5088153208
Cs            0.7814081896        0.1249952910        0.5088122980
Cs            0.2814066855        0.6250037107        0.0088138047
Cs            0.9685924886        0.8750043809        0.2588127530
Cs            0.9685927899        0.3749958981        0.2588147890
Cs            0.4685933489        0.8750038036        0.7588110597
Cs            0.4685919258        0.3749957625        0.7588149010
Cs            0.9685924392        0.8750043115        0.7588115559
Cs            0.9685931179        0.3749959069        0.7588146983
Cs            0.4685929527        0.8750040269        0.2588127585
Cs            0.7185935033        0.8750041633        0.4911878620
Cs            0.7185921318        0.3749956087        0.4911847319
Cs            0.2185922418        0.8750038154        0.9911882910
Cs            0.2185921213        0.3749961106        0.9911854022
Cs            0.7185935612        0.8750035241        0.9911876682
Cs            0.7185933145        0.3749962893        0.9911861953
Cs            0.2185918104        0.8750047090        0.4911877020
Cs            0.5314080742        0.6250042375        0.2411850990
Cs            0.5314066511        0.1249961964        0.2411889403
Cs            0.0314072101        0.6250041019        0.7411852110
Cs            0.0314075114        0.1249956191        0.7411872470
Cs            0.5314078813        0.6250044057        0.7411854683
Cs            0.5314070473        0.1249959731        0.7411872415
Cs            0.0314068821        0.6250040931        0.2411853017
Br            0.1489941240        0.2315503231        0.0992437192
Br            0.1010080407        0.4815429223        0.3492433071
Br            0.1010096676        0.2684651869        0.3492402866
Br            0.3510099567        0.4815428610        0.4007585193
Br            0.3510047622        0.2684652664        0.4007545467
Br            0.3989984551        0.0184580075        0.1507544381
Br            0.3989919317        0.2315501570        0.1507584445
Br            0.1489933322        0.0184579265        0.0992404744
Br            0.6489934720        0.7315344556        0.0992434096
Br            0.6489942790        0.2315499980        0.0992435337
Br            0.1489973883        0.7315350501        0.5992461163
Br            0.1489950828        0.2315498821        0.5992446374
Br            0.6489952378        0.7315347336        0.5992454533
Br            0.6489961601        0.2315499068        0.5992446214
Br            0.1489959207        0.7315344341        0.0992450332
Br            0.6010044875        0.9815422419        0.3492422151
Br            0.6010067966        0.4815424822        0.3492439651
Br            0.1010051169        0.9815417460        0.8492433071
Br            0.1010087073        0.4815433351        0.8492438537
Br            0.6010015449        0.9815419925        0.8492455619
Br            0.6010079695        0.4815429826        0.8492439977
Br            0.1010080365        0.9815418684        0.3492398899
Br            0.6010085422        0.7684501716        0.3492398835
Br            0.6010100915        0.2684652246        0.3492397028
Br            0.1010106534        0.7684497340        0.8492397434
Br            0.1010079772        0.2684652522        0.8492427174
Br            0.6010080683        0.7684498430        0.8492415555
Br            0.6010086969        0.2684652754        0.8492413260
Br            0.1010113577        0.7684499991        0.3492384651
Br            0.8510033440        0.9815419997        0.4007556334
Br            0.8510073823        0.4815431688        0.4007567722
Br            0.3510090615        0.9815418080        0.9007615667
Br            0.3510110923        0.4815430440        0.9007580983
Br            0.8510066678        0.9815420735        0.9007595256
Br            0.8510081643        0.4815429390        0.9007562431
Br            0.3510071633        0.9815421817        0.4007587812
Br            0.8510049172        0.7684501179        0.4007553626
Br            0.8510026117        0.2684649499        0.4007538837
Br            0.3510057210        0.7684500020        0.9007564663
Br            0.3510065280        0.2684655444        0.9007565904
Br            0.8510058760        0.7684496769        0.9007562808
Br            0.8510040793        0.2684655659        0.9007549668
Br            0.3510038399        0.7684500932        0.4007553786
Br            0.8989912927        0.5184566649        0.1507561463
Br            0.8989948831        0.0184582540        0.1507566929
Br            0.3989932034        0.5184575178        0.6507560349
Br            0.3989955125        0.0184577581        0.6507577849
Br            0.8989919593        0.5184570777        0.6507566929
Br            0.8989919635        0.0184581316        0.6507601101
Br            0.3989920305        0.5184570174        0.1507560023
Br            0.8989920228        0.7315347478        0.1507572826
Br            0.8989893466        0.2315502660        0.1507602566
Br            0.3989899085        0.7315347754        0.6507602972
Br            0.3989914578        0.2315498284        0.6507601165
Br            0.8989903324        0.7315348131        0.6507597134
Br            0.8989886423        0.2315500009        0.6507615349
Br            0.3989913031        0.7315347246        0.1507586740
Br            0.6489889077        0.5184569560        0.0992419017
Br            0.6489909385        0.0184581920        0.0992384333
Br            0.1489926177        0.5184568312        0.5992432278
Br            0.1489966560        0.0184580003        0.5992443666
Br            0.6489928367        0.0184578183        0.5992412188
Br            0.1489918357        0.5184570610        0.0992437569
Br            0.0065189666        0.3750222355        0.0358114199
Br            0.2434831985        0.1250232699        0.2858010092
Br            0.4934829202        0.1250193892        0.4641982565
Br            0.2565188942        0.3750211292        0.2141884694
Br            0.5065172301        0.8749815564        0.0358016468
Br            0.5065191061        0.3750236284        0.0358112343
Br            0.0065177558        0.8749778873        0.5358025891
Br            0.0065185038        0.3750243853        0.5358119833
Br            0.5065170798        0.8749806108        0.5358017435
Br            0.5065190718        0.3750258312        0.5358128335
Br            0.0065174466        0.8749800127        0.0358014612
Br            0.7434806777        0.6249780640        0.2858124359
Br            0.7434820741        0.1250241760        0.2858016424
Br            0.2434815879        0.6249796604        0.7858106913
Br            0.2434832783        0.1250221882        0.7858022240
Br            0.7434811058        0.6249788708        0.7858115306
Br            0.7434823604        0.1250237330        0.7858019657
Br            0.2434809661        0.6249793785        0.2858124871
Br            0.9934814962        0.6249756147        0.4641880167
Br            0.9934822442        0.1250221127        0.4641974109
Br            0.4934808939        0.6249763716        0.9641887657
Br            0.4934827699        0.1250184436        0.9641983532
Br            0.9934810334        0.6249777645        0.9641885801
Br            0.9934825534        0.1250199873        0.9641985388
Br            0.4934809282        0.6249741688        0.4641871665
Br            0.7565167217        0.8749778118        0.2141977760
Br            0.7565184121        0.3750203396        0.2141893087
Br            0.2565179259        0.8749758240        0.7141983576
Br            0.2565193223        0.3750219360        0.7141875641
Br            0.7565168015        0.8749767301        0.7141989908
Br            0.7565190339        0.3750206215        0.7141875129
Br            0.2565176396        0.8749762670        0.2141980343
K_POINTS gamma
CELL_PARAMETERS (alat= 15.57890217)
   2.076480492   0.000000108   0.000000337
   0.000000157   2.889151174   0.000000061
   0.000000338   0.000000042   1.990097567