&CONTROL
  calculation = 'relax'
  etot_conv_thr =   1.0000000000d-04
  forc_conv_thr =   1.0000000000d-03
  outdir = './out/'
  prefix = 'cspbbr3'
  pseudo_dir = '../pseudo/'
  verbosity = 'high'
/
&SYSTEM
  degauss =   1.4699723600d-02
  ecutrho =   400
  ecutwfc =   40
  ibrav = 0
  A =    8.24400
  nat = 40                                                            ! remain the same
  ntyp = 3
  occupations = 'smearing'
  smearing = 'cold'
/
&ELECTRONS
  conv_thr =   1.0000000000d-06
  electron_maxstep = 200
  mixing_beta =   0.4
/
&ions
  ion_dynamics='bfgs'
/
&cell
  cell_dynamics='bfgs',
  press=0.0,
  press_conv_thr=0.5,
/
ATOMIC_SPECIES
Br     79.904 br_pbe_v1.4.uspp.F.UPF                                 ! user can choose their own pseudo-potential
Cs     132.9054519 cs_pbe_v1.uspp.F.UPF
Pb     207.2 pb_pbe_v1.uspp.F.UPF
ATOMIC_POSITIONS {crystal}
Pb           -0.0103129754        0.5078581783       -0.0146615939   ! atom coordinates from bulk relaxation
Pb            0.2509368590       -0.0055284168        0.5383146239
Pb            0.2462216447        0.5033543846        0.5868517830
Pb            0.0002488863        0.0137134201        0.0044647716
Pb            0.5095622318        0.4949589535        0.0021160033
Pb            0.7512646546       -0.0011814839        0.5273912756
Pb            0.7497884610        0.5115484606        0.4850798068
Pb            0.5075294425        0.0009024038        0.0352806713
Cs            0.2791595004        0.2210589356        0.0298448976
Cs            0.4700708483        0.7540729594        0.5387450657
Cs            0.2234375367        0.7586941065        1.0362071565
Cs            0.0288889441        0.2578397577        0.4645641744
Cs            0.7804150819        0.2509947990        0.0145094646
Cs            0.9716560644        0.7661552914        0.4985050649
Cs            0.7168940863        0.7444905811        0.9828264532
Cs            0.5334734630        0.2286052714        0.5098524896
Br            0.1197244480        0.4317651086        0.1505938269
Br            0.1110880265        0.9396064319        0.7247754523
Br            0.0825001402        0.5476373998        0.6808881941
Br            0.3493001583        0.9562653323        0.7943894447
Br            0.3492099135        0.5518425004        0.8418194132
Br            0.3964505169        0.0486628761        0.2953009881
Br            0.2880098092        0.4756623759        0.2522571033  ! Br_interstitial, #1, here we use the domino strategy 
Br            0.1276969769        0.0450049583        0.2142199967
Br            0.6549530732        0.4651388043        0.1801348406
Br            0.6090759751        0.9464932883        0.7235603383
Br            0.6035286476        0.5450988753        0.6966858976
Br            0.8542800862        0.9417844437        0.7716238397
Br            0.8438004564        0.5467549870        0.7607032723
Br            0.8891671317        0.0509926971        0.2736418714
Br            0.8909182053        0.4488865176        0.2760798233
Br            0.6379673002        0.0546724475        0.2142947566
Br            0.0158875713        0.7334540486        0.0902805971
Br            0.2180533860        0.2720364656        0.6492181649
Br            0.4824831348        0.2662622082        0.9102257097
Br            0.2618504764        0.7728541432        0.4362580904
Br            0.4571084658        0.4766466824        0.3305342202  ! #8 (the number represents the original relative index of Br)
Br            0.7352106344        0.2310856458        0.6122500547
Br            0.9801617016        0.2340014252        0.8733172820
Br            0.5129197386        0.7687884053        0.1260068872  ! #22, Vacancy #25
K_POINTS gamma
CELL_PARAMETERS {alat}
  2.000000000000000   0.000000000000000   0.000000000000000 
  0.000000000000000   1.423471615720524   0.000000000000000 
  0.000000000000000   0.000000000000000   0.994444444444444
