BEGIN
BEGIN_PATH_INPUT
&PATH
restart_mode      = 'from_scratch',
string_method     = 'neb',
nstep_path        = 1000,
ds                = 0.0756D0,
num_of_images	  = 10,
k_max             = 0.0131D0,
k_min             = 0.005D0,
CI_scheme         = "no-CI",
path_thr          = 0.001D0,
first_last_opt    = .true.
/
END_PATH_INPUT
BEGIN_ENGINE_INPUT
&CONTROL
  etot_conv_thr =   1.0000000000d-04
  forc_conv_thr =   1.0000000000d-03
  outdir = './out/'
  prefix = 'neb_pathway7'
  pseudo_dir = '../pseudo/'
  verbosity = 'high'
/
&SYSTEM
  degauss =   0.01
  ecutrho =   400
  ecutwfc =   40
  ibrav = 0
  A =    8.24400
  nat = 159
  ntyp = 3
  tot_charge = +1
  occupations = 'smearing'
  smearing = 'cold'
/
&ELECTRONS
  conv_thr =   1.0000000000d-06
  electron_maxstep = 200
  mixing_beta =   0.4

/
&ions
  ion_dynamics='bfgs'
/
&cell
  cell_dynamics='bfgs',
  press=0.0,
  press_conv_thr=0.5,
ATOMIC_SPECIES
Br     79.904 br_pbe_v1.4.uspp.F.UPF
Cs     132.9054519 cs_pbe_v1.uspp.F.UPF
Pb     207.2 pb_pbe_v1.uspp.F.UPF
BEGIN_POSITIONS
FIRST_IMAGE
ATOMIC_POSITIONS {crystal}
Pb           -0.0000984872        0.2495865731       -0.0001938878
Pb            0.2499567550        0.0000105435        0.2499488556
Pb            0.2499234854        0.2495663878        0.2502883782
Pb            0.0000561713        0.0000954597        0.0000229783
Pb            0.4999835937        0.7511442351        0.0011514652
Pb            0.4993498718        0.2492179318       -0.0002213374
Pb            0.0011467493        0.7509561152        0.5000741832
Pb            0.0005586910        0.2491484319        0.5001646682
Pb            0.5005296326        0.7504756133        0.4998444401
Pb            0.4996701463        0.2498515222        0.5004323062
Pb            0.0000140748        0.7504917771        0.0000669531
Pb            0.7503703084        0.5001564275        0.2504403979
Pb            0.7500366278       -0.0000287461        0.2499318025
Pb            0.2502505484        0.4998842156        0.7497597245
Pb            0.2498970232        0.0000285358        0.7500494976
Pb            0.7572118756        0.4982569404        0.7611261222
Pb            0.7499964466        0.0002654417        0.7500329067
Pb            0.2480274245        0.5003826265        0.2461634246
Pb            0.7499571696        0.7505295927        0.2498336096
Pb            0.7500145645        0.2488220282        0.2486694389
Pb            0.2493621378        0.7508375430        0.7504911622
Pb            0.2498582115        0.2494782472        0.7499433434
Pb            0.7499439048        0.7505403937        0.7493072876
Pb            0.7496370653        0.2502076037        0.7497380800
Pb            0.2501326385        0.7503667291        0.2498448188
Pb            0.5003346729        0.4998628693       -0.0008449574
Pb            0.4999416110        0.0001403068        0.0000288734
Pb           -0.0000048328        0.5000219946        0.4994615024
Pb            0.0001028546        0.0000961477        0.4999441681
Pb            0.4877201351        0.4974668423        0.4941119692
Pb            0.4999744183        0.0000711415        0.5000525859
Pb            0.0036142118        0.5007154383        0.0018689905
Cs            0.2801122170        0.1243919493        0.0088905719
Cs            0.4719649972        0.3731190669        0.2553503399
Cs            0.2163888103        0.3719391581        0.4924426697
Cs            0.0303194187        0.1244673017        0.2411890662
Cs            0.7797556237        0.6277006699        0.0084406654
Cs            0.7804999950        0.1242764653        0.0089158302
Cs            0.2805069406        0.6282622898        0.5096777882
Cs            0.2802711518        0.1243227771        0.5089520856
Cs            0.7867828379        0.6318159052        0.5046685303
Cs            0.7804052425        0.1240777901        0.5089264134
Cs            0.2815155751        0.6272271151        0.0074119168
Cs            0.9697182637        0.8757249711        0.2587115667
Cs            0.9693110406        0.3738196270        0.2583344234
Cs            0.4692409579        0.8760380836        0.7594904221
Cs            0.4672047507        0.3725237162        0.7617773612
Cs            0.9697801077        0.8756971483        0.7590182734
Cs            0.9710409202        0.3719039633        0.7564105402
Cs            0.4696504353        0.8756385678        0.2587324618
Cs            0.7197258293        0.8758908899        0.4903390243
Cs            0.7220922611        0.3663202117        0.4839624357
Cs            0.2196139157        0.8756119363        0.9911575024
Cs            0.2199527780        0.3727299273        0.9910461980
Cs            0.7199793564        0.8756595800        0.9914004456
Cs            0.7173109299        0.3714073249        0.9948074639
Cs            0.2198731897        0.8756926273        0.4909755761
Cs            0.5311492430        0.6262040529        0.2412581293
Cs            0.5302502179        0.1242815681        0.2408629703
Cs            0.0317403682        0.6257803068        0.7402189185
Cs            0.0303123017        0.1243703242        0.7410685232
Cs            0.5220162972        0.6329539907        0.7510478468
Cs            0.5301647627        0.1244126219        0.7412385337
Cs            0.0294406593        0.6271952781        0.2427619943
Br            0.1484258171        0.2316553906        0.0999915939
Br            0.1017415249        0.4805542454        0.3488647937
Br            0.1024822497        0.2690693052        0.3503403646
Br            0.3500088189        0.4794337188        0.4020866112
Br            0.3529578937        0.2704227760        0.3997180804
Br            0.3979403708        0.0187664820        0.1497782490
Br            0.3985274388        0.2315327704        0.1503174444
Br            0.1479695381        0.0187916353        0.1002150935
Br            0.6474871230        0.7313402026        0.1008702538
Br            0.6483607160        0.2312260754        0.0995084300
Br            0.1474318845        0.7314529689        0.6008404549
Br            0.1487655126        0.2312433091        0.6000191363
Br            0.6468910143        0.7282318876        0.6010469489
Br            0.6488715530        0.2309890294        0.5993186864
Br            0.1476128782        0.7305262396        0.1003806702
Br            0.6018932943        0.9812080098        0.3503777122
Br            0.6047274691        0.4803577498        0.3566639507
Br            0.1020517266        0.9812518151        0.8503156956
Br            0.1020550979        0.4808514517        0.8496660088
Br            0.6022374763        0.9812459029        0.8501699176
Br            0.6000046650        0.4830267380        0.8432782962
Br            0.1020591827        0.9811740179        0.3502458877
Br            0.6013572371        0.7687196398        0.3500698142
Br            0.6022691797        0.2685024543        0.3501771354
Br            0.1011162864        0.7686569848        0.8500836383
Br            0.1026179687        0.2686971434        0.8506171262
Br            0.6013623059        0.7686982063        0.8497633528
Br            0.6027065091        0.2690538240        0.8507089627
Br            0.1015221071        0.7688174303        0.3496477329
Br            0.8521209880        0.9812095766        0.3996770886
Br            0.8477710286        0.4823316192        0.4041657165
Br            0.3520561196        0.9811609828        0.8997716920
Br            0.3510803216        0.4808155409        0.9003994871
Br            0.8518923243        0.9811657569        0.8996354988
Br            0.8487342452        0.4793743253        0.9021927634
Br            0.3522183017        0.9812038256        0.3999095331
Br            0.8514921260        0.7683118598        0.4005520877
Br            0.8555326343        0.2657877998        0.3963368099
Br            0.3520799879        0.7683953700        0.8998650675
Br            0.3522536121        0.2684445076        0.8996477516
Br            0.8510234961        0.7677952302        0.8998467578
Br            0.8523823870        0.2704091707        0.8989004934
Br            0.3518274859        0.7677617321        0.4003599767
Br            0.8991975237        0.5193133732        0.1498473781
Br            0.8979687495        0.0188029071        0.1497681832
Br            0.4033276735        0.5195421073        0.6518282146
Br            0.3981026885        0.0187776597        0.6496469255
Br            0.8939961081        0.5210896798        0.6481043985
Br            0.8978687521        0.0188033120        0.6499355395
Br            0.3982696302        0.5189293712        0.1494430015
Br            0.8973585981        0.7310343744        0.1494676324
Br            0.8985058134        0.2312980031        0.1495407769
Br            0.3958698171        0.7326309485        0.6480604093
Br            0.3985919607        0.2314122397        0.6500680568
Br            0.8976335776        0.7307059305        0.6494799140
Br            0.8982791198        0.2316900565        0.6501141636
Br            0.3976435999        0.7310448479        0.1499783514
Br            0.6485501619        0.5187806502        0.0997235821
Br            0.6479687909        0.0187906803        0.1002198645
Br            0.1485105677        0.5191544901        0.5991931074
Br            0.1479305135        0.0187854385        0.6002520564
Br            0.6479775947        0.0188037734        0.6001901648
Br            0.1494713948        0.5201545277        0.0982838549
Br            0.0065237129        0.3759189030        0.0355556468
Br            0.2431556756        0.1252750002        0.2864801510
Br            0.4930711890        0.1257904660        0.4639214625
Br            0.2576710275        0.3757531882        0.2139911810
Br            0.5070093416        0.8752299686        0.0364734849
Br            0.5062454208        0.3750418403        0.0346279092
Br            0.0068534409        0.8750342798        0.5365331537
Br            0.0055582098        0.3751825437        0.5354206155
Br            0.5077046155        0.8747126042        0.5369007518
Br            0.5136710082        0.3768404571        0.5411443175
Br            0.0068768691        0.8748845819        0.0362172705
Br            0.7431532041        0.6249754856        0.2858798595
Br            0.7428046234        0.1248334385        0.2862899289
Br            0.2446804264        0.6249434036        0.7854331378
Br            0.2431444786        0.1250388301        0.7862175038
Br            0.7373124515        0.6232393312        0.7803152562
Br            0.7430165449        0.1258450398        0.7860525377
Br            0.2430850003        0.6242571061        0.2866027113
Br            0.9961460431        0.6250061125        0.4636283012
Br            0.9932756013        0.1248623415        0.4637783825
Br            0.4930809591        0.6251605426        0.9685978525
Br            0.4930364286        0.1249486370        0.9636209971
Br            0.9925311101        0.6243688135        0.9629605748
Br            0.9928723634        0.1253008545        0.9635677227
Br            0.4987350558        0.6227434912        0.4683763404
Br            0.7569845747        0.8749449902        0.2140249128
Br            0.7566173585        0.3750678463        0.2157574223
Br            0.2567877288        0.8751168404        0.7136384083
Br            0.2561069144        0.3751312695        0.7135140884
Br            0.7567645002        0.8747707515        0.7128843777
Br            0.7550455828        0.3771505591        0.7080871148
Br            0.2569848648        0.8748601542        0.2137565613

LAST_IMAGE
ATOMIC_POSITIONS {crystal}
Pb            0.0003852571        0.2499426899        0.0004057583
Pb            0.2498291464       -0.0000427384        0.2499466658
Pb            0.2501133335        0.2501322415        0.2507274153
Pb           -0.0001351228       -0.0000777315        0.0001510516
Pb            0.5000294936        0.7505020103       -0.0000936596
Pb            0.5001798593        0.2489620710        0.0000580866
Pb           -0.0002113399        0.7502490680        0.4999550900
Pb            0.0001517596        0.2494282613        0.5003418384
Pb            0.4999912894        0.7525777655        0.5011322246
Pb            0.4999391757        0.2426603642        0.4960290331
Pb           -0.0001347224        0.7500801875        0.0001503710
Pb            0.7500137402        0.5001586905        0.2501381146
Pb            0.7500280652        0.0000958426        0.2503482900
Pb            0.2498354380        0.4995249415        0.7496926644
Pb            0.2497756422       -0.0002944580        0.7502180980
Pb            0.7506300642        0.4998671150        0.7507691318
Pb            0.7500364221       -0.0001472131        0.7499951763
Pb            0.2501158116        0.4998643826        0.2507269680
Pb            0.7500277187        0.7499050344        0.2503457810
Pb            0.7500160539        0.2498391944        0.2501393495
Pb            0.2497783608        0.7502972504        0.7502197154
Pb            0.2498329238        0.2504716685        0.7496917243
Pb            0.7500339219        0.7501500869        0.7499976316
Pb            0.7506332119        0.2501298166        0.7507695341
Pb            0.2498303337        0.7500439239        0.2499456991
Pb            0.5001802540        0.5010360420        0.0000575800
Pb            0.5000297287       -0.0005031548       -0.0000939950
Pb            0.0001516154        0.5005664271        0.5003424910
Pb           -0.0002100524       -0.0002441277        0.4999555324
Pb            0.4999398359        0.5073331824        0.4960294814
Pb            0.4999894780       -0.0025724658        0.5011369688
Pb            0.0003848935        0.5000553344        0.0004055445
Cs            0.2802189645        0.1245253007        0.0081664677
Cs            0.4684214911        0.3749995003        0.2492185528
Cs            0.2124882253        0.3749996108        0.4896121491
Cs            0.0309961830        0.1245838637        0.2413222327
Cs            0.7808916817        0.6255332123        0.0079645470
Cs            0.7808921589        0.1244661470        0.0079643527
Cs            0.2770955984        0.6263286000        0.5091551798
Cs            0.2770961731        0.1236712522        0.5091529756
Cs            0.7813276807        0.6245669341        0.5107408647
Cs            0.7813274879        0.1254331055        0.5107398977
Cs            0.2802186824        0.6254741339        0.0081659836
Cs            0.9693599966        0.8750014291        0.2584370068
Cs            0.9696926600        0.3749994698        0.2575060639
Cs            0.4683031292        0.8749991634        0.7627230509
Cs            0.4652899224        0.3749992584        0.7752933360
Cs            0.9692672045        0.8750005493        0.7587416463
Cs            0.9678798890        0.3749995536        0.7589196577
Cs            0.4698804732        0.8749995607        0.2571400618
Cs            0.7217063386        0.8750008159        0.4909763525
Cs            0.7295694302        0.3749999420        0.4902515705
Cs            0.2191645978        0.8749993546        0.9918277732
Cs            0.2183402591        0.3749995756        0.9924071027
Cs            0.7197580236        0.8749996134        0.9916331354
Cs            0.7199187272        0.3749994083        0.9925283894
Cs            0.2186042493        0.8750007113        0.4901422995
Cs            0.5319651352        0.6263017318        0.2349836284
Cs            0.5319654203        0.1236963255        0.2349819917
Cs            0.0308269510        0.6254829836        0.7417839511
Cs            0.0308276647        0.1245178295        0.7417863814
Cs            0.5294817663        0.6247955406        0.7436765925
Cs            0.5294801831        0.1252029431        0.7436784584
Cs            0.0309951419        0.6254165684        0.2413236754
Br            0.1495081401        0.2308752889        0.1007949105
Br            0.1015105708        0.4806452987        0.3498640283
Br            0.1015117211        0.2693561153        0.3498633937
Br            0.3542336619        0.4754880164        0.4013837908
Br            0.3542347178        0.2745125302        0.4013865553
Br            0.3981385121        0.0188284845        0.1497865808
Br            0.3990510827        0.2312192885        0.1507301629
Br            0.1484986564        0.0193914272        0.1000391008
Br            0.6484665082        0.7307082243        0.0999775543
Br            0.6484244049        0.2306732398        0.1002379058
Br            0.1479565290        0.7314524228        0.6006174358
Br            0.1491632353        0.2311432154        0.5997605128
Br            0.6478418548        0.7302520689        0.5994087076
Br            0.6481347256        0.2362495008        0.5973020288
Br            0.1484976198        0.7306070475        0.1000404032
Br            0.6001974131        0.9810129085        0.3502122706
Br            0.6019171531        0.4734892277        0.3541515799
Br            0.1013183608        0.9808799389        0.8499374738
Br            0.1018326763        0.4801410235        0.8497236080
Br            0.6013299655        0.9811103222        0.8496648045
Br            0.6020899474        0.4816009361        0.8504044917
Br            0.1015351538        0.9808242779        0.3497572305
Br            0.6001961352        0.7689847667        0.3502134552
Br            0.6019159353        0.2765106295        0.3541524852
Br            0.1013192413        0.7691193801        0.8499371737
Br            0.1018324667        0.2698597878        0.8497235511
Br            0.6013312138        0.7688873365        0.8496643680
Br            0.6020880215        0.2683979773        0.8504057530
Br            0.1015346570        0.7691762741        0.3497586348
Br            0.8513051635        0.9813010319        0.3999833171
Br            0.8531346399        0.4823837115        0.3984774630
Br            0.3512214829        0.9807002827        0.9002525746
Br            0.3508013071        0.4806258610        0.9007529805
Br            0.8513485007        0.9808536034        0.9003174076
Br            0.8515022672        0.4801375447        0.9002960640
Br            0.3516423736        0.9812596561        0.4013384727
Br            0.8513069857        0.7686991933        0.3999834271
Br            0.8531327959        0.2676175759        0.3984771933
Br            0.3512206265        0.7692975382        0.9002506683
Br            0.3508028135        0.2693736875        0.9007547847
Br            0.8513488521        0.7691455221        0.9003163746
Br            0.8515027561        0.2698628748        0.9002966186
Br            0.3516438846        0.7687384319        0.4013395927
Br            0.8977202539        0.5191442128        0.1508043320
Br            0.8981458568        0.0193906486        0.1501417530
Br            0.4029590264        0.5138323012        0.6505540922
Br            0.3989217737        0.0200690916        0.6496669777
Br            0.8984498042        0.5194194166        0.6504742474
Br            0.8981433698        0.0193550378        0.6500450063
Br            0.3990489302        0.5187806273        0.1507302642
Br            0.8981452965        0.7306079302        0.1501416193
Br            0.8977204912        0.2308573747        0.1508054000
Br            0.3989224785        0.7299291936        0.6496642094
Br            0.4029624262        0.2361682027        0.6505523942
Br            0.8981447300        0.7306462237        0.6500435892
Br            0.8984488463        0.2305817459        0.6504765499
Br            0.3981359004        0.7311682063        0.1497877654
Br            0.6484244751        0.5193268358        0.1002393277
Br            0.6484663190        0.0192886591        0.0999752488
Br            0.1491614944        0.5188577938        0.5997589316
Br            0.1479576768        0.0185482630        0.6006190944
Br            0.6478435948        0.0197463779        0.5994100086
Br            0.1495067471        0.5191257615        0.1007951621
Br            0.0062485808        0.3750019616        0.0372627783
Br            0.2444706695        0.1254508438        0.2886204920
Br            0.4927214642        0.1265091707        0.4586700368
Br            0.2544964748        0.3750012587        0.2121754396
Br            0.5066253841        0.8749973934        0.0366133602
Br            0.5061909979        0.3749998601        0.0298147083
Br            0.0058419688        0.8749987652        0.5373504332
Br            0.0011498158        0.3750025105        0.5372339871
Br            0.5072749620        0.8749974699        0.5401817792 !below this
Br            0.6481368341        0.5137516760        0.5973042509 !Vacancy
Br            0.0065117857        0.8749982411        0.0373404359
Br            0.7414564473        0.6245243852        0.2894521412
Br            0.7414562329        0.1254761186        0.2894494398
Br            0.2450022106        0.6244739018        0.7856206668
Br            0.2450040447        0.1255262923        0.7856212403
Br            0.7425876131        0.6246088838        0.7860006921
Br            0.7425859927        0.1253915861        0.7860005680
Br            0.2444699488        0.6245492814        0.2886235907
Br            0.9942452125        0.6249856975        0.4627630381
Br            0.9942431981        0.1250163175        0.4627618742
Br            0.4934579625        0.6251666415        0.9638511432
Br            0.4934594746        0.1248309265        0.9638558110
Br            0.9935599368        0.6247636659        0.9627866008
Br            0.9935594561        0.1252370556        0.9627905396
Br            0.4927210234        0.6234942307        0.4586684850
Br            0.7558718694        0.8749980827        0.2135893876
Br            0.7568982878        0.3750012426        0.2131494355
Br            0.2572858196        0.8749980891        0.7115716299
Br            0.2588899573        0.3750017276        0.7089051499
Br            0.7562726624        0.8749982793        0.7120513834
Br            0.7547819016        0.3750013866        0.7118083370
Br            0.2568054356        0.8749981589        0.2132947619


END_POSITIONS
K_POINTS gamma
CELL_PARAMETERS (alat= 15.57890217)
   2.076480492   0.000000108   0.000000337
   0.000000157   2.889151174   0.000000061
   0.000000338   0.000000042   1.990097567
END_ENGINE_INPUT
END