&CONTROL
  calculation = 'vc-relax'
  etot_conv_thr =   1.0000000000d-04
  forc_conv_thr =   1.0000000000d-03
  outdir = './out/'
  prefix = 'cspbbr3'
  pseudo_dir = '../pseudo/'
  verbosity = 'high'
/
&SYSTEM
  degauss =   1.4699723600d-02
  ecutrho =   400
  ecutwfc =   40
  ibrav = 0
  A =    8.24400
  nat = 360
  ntyp = 3
  occupations = 'smearing'
  smearing = 'cold'
/
&ELECTRONS
  conv_thr =   1.0000000000d-06
  electron_maxstep = 200
  mixing_beta =   0.4
/
&ions
  ion_dynamics='bfgs'
/
&cell
  cell_dynamics='bfgs',
  press=0.0,
  press_conv_thr=0.5,
/
ATOMIC_SPECIES
Br     79.904 br_pbe_v1.4.uspp.F.UPF
Cs     132.9054519 cs_pbe_v1.uspp.F.UPF
Pb     207.2 pb_pbe_v1.uspp.F.UPF
ATOMIC_POSITIONS {crystal}
Pb   0.000000000000000   0.166666666666667   0.000000000000000 
Pb   0.166666666666667   0.000000000000000   0.250000000000000 
Pb   0.166666666666667   0.166666666666667   0.250000000000000 
Pb   0.000000000000000   0.000000000000000   0.000000000000000 
Pb   0.000000000000000   0.500000000000000   0.500000000000000 
Pb   0.333333333333333   0.166666666666667   0.000000000000000 
Pb   0.333333333333333   0.500000000000000   0.500000000000000 
Pb   0.666666666666667   0.166666666666667   0.000000000000000 
Pb   0.666666666666667   0.500000000000000   0.500000000000000 
Pb   0.000000000000000   0.500000000000000   0.000000000000000 
Pb   0.000000000000000   0.833333333333333   0.500000000000000 
Pb   0.333333333333333   0.500000000000000   0.000000000000000 
Pb   0.333333333333333   0.833333333333333   0.500000000000000 
Pb   0.666666666666667   0.500000000000000   0.000000000000000 
Pb   0.666666666666667   0.833333333333333   0.500000000000000 
Pb   0.000000000000000   0.833333333333333   0.000000000000000 
Pb   0.333333333333333   0.833333333333333   0.000000000000000 
Pb   0.000000000000000   0.166666666666667   0.500000000000000 
Pb   0.666666666666667   0.833333333333333   0.000000000000000 
Pb   0.333333333333333   0.166666666666667   0.500000000000000 
Pb   0.666666666666667   0.166666666666667   0.500000000000000 
Pb   0.166666666666667   0.333333333333333   0.750000000000000 
Pb   0.500000000000000   0.000000000000000   0.250000000000000 
Pb   0.500000000000000   0.333333333333333   0.750000000000000 
Pb   0.833333333333333   0.000000000000000   0.250000000000000 
Pb   0.833333333333333   0.333333333333333   0.750000000000000 
Pb   0.166666666666667   0.333333333333333   0.250000000000000 
Pb   0.166666666666667   0.666666666666667   0.750000000000000 
Pb   0.500000000000000   0.333333333333333   0.250000000000000 
Pb   0.500000000000000   0.666666666666667   0.750000000000000 
Pb   0.833333333333333   0.333333333333333   0.250000000000000 
Pb   0.833333333333333   0.666666666666667   0.750000000000000 
Pb   0.166666666666667   0.666666666666667   0.250000000000000 
Pb   0.500000000000000   0.666666666666667   0.250000000000000 
Pb   0.166666666666667   0.000000000000000   0.750000000000000 
Pb   0.833333333333333   0.666666666666667   0.250000000000000 
Pb   0.500000000000000   0.000000000000000   0.750000000000000 
Pb   0.833333333333333   0.000000000000000   0.750000000000000 
Pb   0.166666666666667   0.500000000000000   0.750000000000000 
Pb   0.500000000000000   0.166666666666667   0.250000000000000 
Pb   0.500000000000000   0.500000000000000   0.750000000000000 
Pb   0.833333333333333   0.166666666666667   0.250000000000000 
Pb   0.833333333333333   0.500000000000000   0.750000000000000 
Pb   0.166666666666667   0.500000000000000   0.250000000000000 
Pb   0.166666666666667   0.833333333333333   0.750000000000000 
Pb   0.500000000000000   0.500000000000000   0.250000000000000 
Pb   0.500000000000000   0.833333333333333   0.750000000000000 
Pb   0.833333333333333   0.500000000000000   0.250000000000000 
Pb   0.833333333333333   0.833333333333333   0.750000000000000 
Pb   0.166666666666667   0.833333333333333   0.250000000000000 
Pb   0.500000000000000   0.833333333333333   0.250000000000000 
Pb   0.166666666666667   0.166666666666667   0.750000000000000 
Pb   0.833333333333333   0.833333333333333   0.250000000000000 
Pb   0.500000000000000   0.166666666666667   0.750000000000000 
Pb   0.833333333333333   0.166666666666667   0.750000000000000 
Pb   0.000000000000000   0.333333333333333   0.500000000000000 
Pb   0.333333333333333   0.000000000000000   0.000000000000000 
Pb   0.333333333333333   0.333333333333333   0.500000000000000 
Pb   0.666666666666667   0.000000000000000   0.000000000000000 
Pb   0.666666666666667   0.333333333333333   0.500000000000000 
Pb   0.000000000000000   0.333333333333333   0.000000000000000 
Pb   0.000000000000000   0.666666666666667   0.500000000000000 
Pb   0.333333333333333   0.333333333333333   0.000000000000000 
Pb   0.333333333333333   0.666666666666667   0.500000000000000 
Pb   0.666666666666667   0.333333333333333   0.000000000000000 
Pb   0.666666666666667   0.666666666666667   0.500000000000000 
Pb   0.000000000000000   0.666666666666667   0.000000000000000 
Pb   0.333333333333333   0.666666666666667   0.000000000000000 
Pb   0.000000000000000   0.000000000000000   0.500000000000000 
Pb   0.666666666666667   0.666666666666667   0.000000000000000 
Pb   0.333333333333333   0.000000000000000   0.500000000000000 
Pb   0.666666666666667   0.000000000000000   0.500000000000000 
Cs   0.177000000000000   0.083333333333333   0.003510000000000 
Cs   0.323000000000000   0.250000000000000   0.253510000000000 
Cs   0.156333333333333   0.250000000000000   0.496490000000000 
Cs   0.010333333333333   0.083333333333333   0.246490000000000 
Cs   0.177000000000000   0.416666666666667   0.503510000000000 
Cs   0.510333333333333   0.083333333333333   0.003510000000000 
Cs   0.510333333333333   0.416666666666667   0.503510000000000 
Cs   0.843666666666667   0.083333333333333   0.003510000000000 
Cs   0.843666666666667   0.416666666666667   0.503510000000000 
Cs   0.177000000000000   0.416666666666667   0.003510000000000 
Cs   0.177000000000000   0.750000000000000   0.503510000000000 
Cs   0.510333333333333   0.416666666666667   0.003510000000000 
Cs   0.510333333333333   0.750000000000000   0.503510000000000 
Cs   0.843666666666667   0.416666666666667   0.003510000000000 
Cs   0.843666666666667   0.750000000000000   0.503510000000000 
Cs   0.177000000000000   0.750000000000000   0.003510000000000 
Cs   0.510333333333333   0.750000000000000   0.003510000000000 
Cs   0.177000000000000   0.083333333333333   0.503510000000000 
Cs   0.843666666666667   0.750000000000000   0.003510000000000 
Cs   0.510333333333333   0.083333333333333   0.503510000000000 
Cs   0.843666666666667   0.083333333333333   0.503510000000000 
Cs   0.323000000000000   0.583333333333333   0.753510000000000 
Cs   0.656333333333333   0.250000000000000   0.253510000000000 
Cs   0.656333333333333   0.583333333333333   0.753510000000000 
Cs   0.989666666666667   0.250000000000000   0.253510000000000 
Cs   0.989666666666667   0.583333333333333   0.753510000000000 
Cs   0.323000000000000   0.583333333333333   0.253510000000000 
Cs   0.323000000000000   0.916666666666667   0.753510000000000 
Cs   0.656333333333333   0.583333333333333   0.253510000000000 
Cs   0.656333333333333   0.916666666666667   0.753510000000000 
Cs   0.989666666666667   0.583333333333333   0.253510000000000 
Cs   0.989666666666667   0.916666666666667   0.753510000000000 
Cs   0.323000000000000   0.916666666666667   0.253510000000000 
Cs   0.656333333333333   0.916666666666667   0.253510000000000 
Cs   0.323000000000000   0.250000000000000   0.753510000000000 
Cs   0.989666666666667   0.916666666666667   0.253510000000000 
Cs   0.656333333333333   0.250000000000000   0.753510000000000 
Cs   0.989666666666667   0.250000000000000   0.753510000000000 
Cs   0.156333333333333   0.583333333333333   0.996490000000000 
Cs   0.489666666666667   0.250000000000000   0.496490000000000 
Cs   0.489666666666667   0.583333333333333   0.996490000000000 
Cs   0.823000000000000   0.250000000000000   0.496490000000000 
Cs   0.823000000000000   0.583333333333333   0.996490000000000 
Cs   0.156333333333333   0.583333333333333   0.496490000000000 
Cs   0.156333333333333   0.916666666666667   0.996490000000000 
Cs   0.489666666666667   0.583333333333333   0.496490000000000 
Cs   0.489666666666667   0.916666666666667   0.996490000000000 
Cs   0.823000000000000   0.583333333333333   0.496490000000000 
Cs   0.823000000000000   0.916666666666667   0.996490000000000 
Cs   0.156333333333333   0.916666666666667   0.496490000000000 
Cs   0.489666666666667   0.916666666666667   0.496490000000000 
Cs   0.156333333333333   0.250000000000000   0.996490000000000 
Cs   0.823000000000000   0.916666666666667   0.496490000000000 
Cs   0.489666666666667   0.250000000000000   0.996490000000000 
Cs   0.823000000000000   0.250000000000000   0.996490000000000 
Cs   0.010333333333333   0.416666666666667   0.746490000000000 
Cs   0.343666666666667   0.083333333333333   0.246490000000000 
Cs   0.343666666666667   0.416666666666667   0.746490000000000 
Cs   0.677000000000000   0.083333333333333   0.246490000000000 
Cs   0.677000000000000   0.416666666666667   0.746490000000000 
Cs   0.010333333333333   0.416666666666667   0.246490000000000 
Cs   0.010333333333333   0.750000000000000   0.746490000000000 
Cs   0.343666666666667   0.416666666666667   0.246490000000000 
Cs   0.343666666666667   0.750000000000000   0.746490000000000 
Cs   0.677000000000000   0.416666666666667   0.246490000000000 
Cs   0.677000000000000   0.750000000000000   0.746490000000000 
Cs   0.010333333333333   0.750000000000000   0.246490000000000 
Cs   0.343666666666667   0.750000000000000   0.246490000000000 
Cs   0.010333333333333   0.083333333333333   0.746490000000000 
Cs   0.677000000000000   0.750000000000000   0.246490000000000 
Cs   0.343666666666667   0.083333333333333   0.746490000000000 
Cs   0.677000000000000   0.083333333333333   0.746490000000000 
Br   0.097823333333333   0.158703333333333   0.103035000000000 
Br   0.068843333333333   0.325370000000000   0.353035000000000 
Br   0.068843333333333   0.174630000000000   0.353035000000000 
Br   0.235510000000000   0.325370000000000   0.396965000000000 
Br   0.235510000000000   0.174630000000000   0.396965000000000 
Br   0.264490000000000   0.007963333333333   0.146965000000000 
Br   0.264490000000000   0.158703333333333   0.146965000000000 
Br   0.097823333333333   0.007963333333333   0.103035000000000 
Br   0.097823333333333   0.492036666666667   0.603035000000000 
Br   0.431156666666667   0.158703333333333   0.103035000000000 
Br   0.431156666666667   0.492036666666667   0.603035000000000 
Br   0.764490000000000   0.158703333333333   0.103035000000000 
Br   0.764490000000000   0.492036666666667   0.603035000000000 
Br   0.097823333333333   0.492036666666667   0.103035000000000 
Br   0.097823333333333   0.825370000000000   0.603035000000000 
Br   0.431156666666667   0.492036666666667   0.103035000000000 
Br   0.431156666666667   0.825370000000000   0.603035000000000 
Br   0.764490000000000   0.492036666666667   0.103035000000000 
Br   0.764490000000000   0.825370000000000   0.603035000000000 
Br   0.097823333333333   0.825370000000000   0.103035000000000 
Br   0.431156666666667   0.825370000000000   0.103035000000000 
Br   0.097823333333333   0.158703333333333   0.603035000000000 
Br   0.764490000000000   0.825370000000000   0.103035000000000 
Br   0.431156666666667   0.158703333333333   0.603035000000000 
Br   0.764490000000000   0.158703333333333   0.603035000000000 
Br   0.068843333333333   0.658703333333334   0.853035000000000 
Br   0.402176666666667   0.325370000000000   0.353035000000000 
Br   0.402176666666667   0.658703333333334   0.853035000000000 
Br   0.735510000000000   0.325370000000000   0.353035000000000 
Br   0.735510000000000   0.658703333333334   0.853035000000000 
Br   0.068843333333333   0.658703333333334   0.353035000000000 
Br   0.068843333333333   0.992036666666667   0.853035000000000 
Br   0.402176666666667   0.658703333333334   0.353035000000000 
Br   0.402176666666667   0.992036666666667   0.853035000000000 
Br   0.735510000000000   0.658703333333334   0.353035000000000 
Br   0.735510000000000   0.992036666666667   0.853035000000000 
Br   0.068843333333333   0.992036666666667   0.353035000000000 
Br   0.402176666666667   0.992036666666667   0.353035000000000 
Br   0.068843333333333   0.325370000000000   0.853035000000000 
Br   0.735510000000000   0.992036666666667   0.353035000000000 
Br   0.402176666666667   0.325370000000000   0.853035000000000 
Br   0.735510000000000   0.325370000000000   0.853035000000000 
Br   0.068843333333333   0.507963333333333   0.853035000000000 
Br   0.402176666666667   0.174630000000000   0.353035000000000 
Br   0.402176666666667   0.507963333333333   0.853035000000000 
Br   0.735510000000000   0.174630000000000   0.353035000000000 
Br   0.735510000000000   0.507963333333333   0.853035000000000 
Br   0.068843333333333   0.507963333333333   0.353035000000000 
Br   0.068843333333333   0.841296666666667   0.853035000000000 
Br   0.402176666666667   0.507963333333333   0.353035000000000 
Br   0.402176666666667   0.841296666666667   0.853035000000000 
Br   0.735510000000000   0.507963333333333   0.353035000000000 
Br   0.735510000000000   0.841296666666667   0.853035000000000 
Br   0.068843333333333   0.841296666666667   0.353035000000000 
Br   0.402176666666667   0.841296666666667   0.353035000000000 
Br   0.068843333333333   0.174630000000000   0.853035000000000 
Br   0.735510000000000   0.841296666666667   0.353035000000000 
Br   0.402176666666667   0.174630000000000   0.853035000000000 
Br   0.735510000000000   0.174630000000000   0.853035000000000 
Br   0.235510000000000   0.658703333333334   0.896965000000000 
Br   0.568843333333333   0.325370000000000   0.396965000000000 
Br   0.568843333333333   0.658703333333334   0.896965000000000 
Br   0.902176666666667   0.325370000000000   0.396965000000000 
Br   0.902176666666667   0.658703333333334   0.896965000000000 
Br   0.235510000000000   0.658703333333334   0.396965000000000 
Br   0.235510000000000   0.992036666666667   0.896965000000000 
Br   0.568843333333333   0.658703333333334   0.396965000000000 
Br   0.568843333333333   0.992036666666667   0.896965000000000 
Br   0.902176666666667   0.658703333333334   0.396965000000000 
Br   0.902176666666667   0.992036666666667   0.896965000000000 
Br   0.235510000000000   0.992036666666667   0.396965000000000 
Br   0.568843333333333   0.992036666666667   0.396965000000000 
Br   0.235510000000000   0.325370000000000   0.896965000000000 
Br   0.902176666666667   0.992036666666667   0.396965000000000 
Br   0.568843333333333   0.325370000000000   0.896965000000000 
Br   0.902176666666667   0.325370000000000   0.896965000000000 
Br   0.235510000000000   0.507963333333333   0.896965000000000 
Br   0.568843333333333   0.174630000000000   0.396965000000000 
Br   0.568843333333333   0.507963333333333   0.896965000000000 
Br   0.902176666666667   0.174630000000000   0.396965000000000 
Br   0.902176666666667   0.507963333333333   0.896965000000000 
Br   0.235510000000000   0.507963333333333   0.396965000000000 
Br   0.235510000000000   0.841296666666667   0.896965000000000 
Br   0.568843333333333   0.507963333333333   0.396965000000000 
Br   0.568843333333333   0.841296666666667   0.896965000000000 
Br   0.902176666666667   0.507963333333333   0.396965000000000 
Br   0.902176666666667   0.841296666666667   0.896965000000000 
Br   0.235510000000000   0.841296666666667   0.396965000000000 
Br   0.568843333333333   0.841296666666667   0.396965000000000 
Br   0.235510000000000   0.174630000000000   0.896965000000000 
Br   0.902176666666667   0.841296666666667   0.396965000000000 
Br   0.568843333333333   0.174630000000000   0.896965000000000 
Br   0.902176666666667   0.174630000000000   0.896965000000000 
Br   0.264490000000000   0.341296666666667   0.646965000000000 
Br   0.597823333333333   0.007963333333333   0.146965000000000 
Br   0.597823333333333   0.341296666666667   0.646965000000000 
Br   0.931156666666667   0.007963333333333   0.146965000000000 
Br   0.931156666666667   0.341296666666667   0.646965000000000 
Br   0.264490000000000   0.341296666666667   0.146965000000000 
Br   0.264490000000000   0.674630000000000   0.646965000000000 
Br   0.597823333333333   0.341296666666667   0.146965000000000 
Br   0.597823333333333   0.674630000000000   0.646965000000000 
Br   0.931156666666667   0.341296666666667   0.146965000000000 
Br   0.931156666666667   0.674630000000000   0.646965000000000 
Br   0.264490000000000   0.674630000000000   0.146965000000000 
Br   0.597823333333333   0.674630000000000   0.146965000000000 
Br   0.264490000000000   0.007963333333333   0.646965000000000 
Br   0.931156666666667   0.674630000000000   0.146965000000000 
Br   0.597823333333333   0.007963333333333   0.646965000000000 
Br   0.931156666666667   0.007963333333333   0.646965000000000 
Br   0.264490000000000   0.492036666666667   0.646965000000000 
Br   0.597823333333333   0.158703333333333   0.146965000000000 
Br   0.597823333333333   0.492036666666667   0.646965000000000 
Br   0.931156666666667   0.158703333333333   0.146965000000000 
Br   0.931156666666667   0.492036666666667   0.646965000000000 
Br   0.264490000000000   0.492036666666667   0.146965000000000 
Br   0.264490000000000   0.825370000000000   0.646965000000000 
Br   0.597823333333333   0.492036666666667   0.146965000000000 
Br   0.597823333333333   0.825370000000000   0.646965000000000 
Br   0.931156666666667   0.492036666666667   0.146965000000000 
Br   0.931156666666667   0.825370000000000   0.646965000000000 
Br   0.264490000000000   0.825370000000000   0.146965000000000 
Br   0.597823333333333   0.825370000000000   0.146965000000000 
Br   0.264490000000000   0.158703333333333   0.646965000000000 
Br   0.931156666666667   0.825370000000000   0.146965000000000 
Br   0.597823333333333   0.158703333333333   0.646965000000000 
Br   0.931156666666667   0.158703333333333   0.646965000000000 
Br   0.097823333333333   0.341296666666667   0.603035000000000 
Br   0.431156666666667   0.007963333333333   0.103035000000000 
Br   0.431156666666667   0.341296666666667   0.603035000000000 
Br   0.764490000000000   0.007963333333333   0.103035000000000 
Br   0.764490000000000   0.341296666666667   0.603035000000000 
Br   0.097823333333333   0.341296666666667   0.103035000000000 
Br   0.097823333333333   0.674630000000000   0.603035000000000 
Br   0.431156666666667   0.341296666666667   0.103035000000000 
Br   0.431156666666667   0.674630000000000   0.603035000000000 
Br   0.764490000000000   0.341296666666667   0.103035000000000 
Br   0.764490000000000   0.674630000000000   0.603035000000000 
Br   0.097823333333333   0.674630000000000   0.103035000000000 
Br   0.431156666666667   0.674630000000000   0.103035000000000 
Br   0.097823333333333   0.007963333333333   0.603035000000000 
Br   0.764490000000000   0.674630000000000   0.103035000000000 
Br   0.431156666666667   0.007963333333333   0.603035000000000 
Br   0.764490000000000   0.007963333333333   0.603035000000000 
Br   0.001233333333333   0.250000000000000   0.022750000000000 
Br   0.165433333333333   0.083333333333333   0.272750000000000 
Br   0.332100000000000   0.083333333333333   0.477250000000000 
Br   0.167900000000000   0.250000000000000   0.227250000000000 
Br   0.001233333333333   0.583333333333333   0.522750000000000 
Br   0.334566666666667   0.250000000000000   0.022750000000000 
Br   0.334566666666667   0.583333333333333   0.522750000000000 
Br   0.667900000000000   0.250000000000000   0.022750000000000 
Br   0.667900000000000   0.583333333333333   0.522750000000000 
Br   0.001233333333333   0.583333333333333   0.022750000000000 
Br   0.001233333333333   0.916666666666667   0.522750000000000 
Br   0.334566666666667   0.583333333333333   0.022750000000000 
Br   0.334566666666667   0.916666666666667   0.522750000000000 
Br   0.667900000000000   0.583333333333333   0.022750000000000 
Br   0.667900000000000   0.916666666666667   0.522750000000000 
Br   0.001233333333333   0.916666666666667   0.022750000000000 
Br   0.334566666666667   0.916666666666667   0.022750000000000 
Br   0.001233333333333   0.250000000000000   0.522750000000000 
Br   0.667900000000000   0.916666666666667   0.022750000000000 
Br   0.334566666666667   0.250000000000000   0.522750000000000 
Br   0.667900000000000   0.250000000000000   0.522750000000000 
Br   0.165433333333333   0.416666666666667   0.772750000000000 
Br   0.498766666666667   0.083333333333333   0.272750000000000 
Br   0.498766666666667   0.416666666666667   0.772750000000000 
Br   0.832100000000000   0.083333333333333   0.272750000000000 
Br   0.832100000000000   0.416666666666667   0.772750000000000 
Br   0.165433333333333   0.416666666666667   0.272750000000000 
Br   0.165433333333333   0.750000000000000   0.772750000000000 
Br   0.498766666666667   0.416666666666667   0.272750000000000 
Br   0.498766666666667   0.750000000000000   0.772750000000000 
Br   0.832100000000000   0.416666666666667   0.272750000000000 
Br   0.832100000000000   0.750000000000000   0.772750000000000 
Br   0.165433333333333   0.750000000000000   0.272750000000000 
Br   0.498766666666667   0.750000000000000   0.272750000000000 
Br   0.165433333333333   0.083333333333333   0.772750000000000 
Br   0.832100000000000   0.750000000000000   0.272750000000000 
Br   0.498766666666667   0.083333333333333   0.772750000000000 
Br   0.832100000000000   0.083333333333333   0.772750000000000 
Br   0.332100000000000   0.416666666666667   0.977250000000000 
Br   0.665433333333333   0.083333333333333   0.477250000000000 
Br   0.665433333333333   0.416666666666667   0.977250000000000 
Br   0.998766666666667   0.083333333333333   0.477250000000000 
Br   0.998766666666667   0.416666666666667   0.977250000000000 
Br   0.332100000000000   0.416666666666667   0.477250000000000 
Br   0.332100000000000   0.750000000000000   0.977250000000000 
Br   0.665433333333333   0.416666666666667   0.477250000000000 
Br   0.665433333333333   0.750000000000000   0.977250000000000 
Br   0.998766666666667   0.416666666666667   0.477250000000000 
Br   0.998766666666667   0.750000000000000   0.977250000000000 
Br   0.332100000000000   0.750000000000000   0.477250000000000 
Br   0.665433333333333   0.750000000000000   0.477250000000000 
Br   0.332100000000000   0.083333333333333   0.977250000000000 
Br   0.998766666666667   0.750000000000000   0.477250000000000 
Br   0.665433333333333   0.083333333333333   0.977250000000000 
Br   0.998766666666667   0.083333333333333   0.977250000000000 
Br   0.167900000000000   0.583333333333333   0.727250000000000 
Br   0.501233333333333   0.250000000000000   0.227250000000000 
Br   0.501233333333333   0.583333333333333   0.727250000000000 
Br   0.834566666666667   0.250000000000000   0.227250000000000 
Br   0.834566666666667   0.583333333333333   0.727250000000000 
Br   0.167900000000000   0.583333333333333   0.227250000000000 
Br   0.167900000000000   0.916666666666667   0.727250000000000 
Br   0.501233333333333   0.583333333333333   0.227250000000000 
Br   0.501233333333333   0.916666666666667   0.727250000000000 
Br   0.834566666666667   0.583333333333333   0.227250000000000 
Br   0.834566666666667   0.916666666666667   0.727250000000000 
Br   0.167900000000000   0.916666666666667   0.227250000000000 
Br   0.501233333333333   0.916666666666667   0.227250000000000 
Br   0.167900000000000   0.250000000000000   0.727250000000000 
Br   0.834566666666667   0.916666666666667   0.227250000000000 
Br   0.501233333333333   0.250000000000000   0.727250000000000 
Br   0.834566666666667   0.250000000000000   0.727250000000000 
K_POINTS gamma
CELL_PARAMETERS {alat}
  3.000000000000000   0.000000000000000   0.000000000000000 
  0.000000000000000   4.270414847161572   0.000000000000000 
  0.000000000000000   0.000000000000000   1.988888888888889
