&CONTROL
  calculation = 'relax'
  etot_conv_thr =   1.0000000000d-04
  forc_conv_thr =   1.0000000000d-03
  outdir = '../../12_output/332/'
  prefix = 'ibr_cspbbr3_332'
  pseudo_dir = '../../../pseudo/'
  verbosity = 'high'
/
&SYSTEM
  degauss =   1.4699723600d-02
  ecutrho =   400
  ecutwfc =   40
  ibrav = 0
  A =    8.24400
  nat = 361  ! add a Br
  ntyp = 3
  occupations = 'smearing'
  smearing = 'cold'
/
&ELECTRONS
  conv_thr =   1.0000000000d-06
  electron_maxstep = 200
  mixing_beta =   0.4
/
&ions
  ion_dynamics='bfgs'
/
&cell
  cell_dynamics='bfgs',
  press=0.0,
  press_conv_thr=0.5,
/
ATOMIC_SPECIES
Br     79.904 br_pbe_v1.4.uspp.F.UPF
Cs     132.9054519 cs_pbe_v1.uspp.F.UPF
Pb     207.2 pb_pbe_v1.uspp.F.UPF
ATOMIC_POSITIONS {crystal}
Pb           -0.0001226553        0.1668054748        0.0001468530    ! from 12_output/332/cspbbr3_vcrelax_output.out
Pb            0.1665765566       -0.0000597494        0.2501660637
Pb            0.1664675754        0.1669342011        0.2500618047
Pb            0.0000000000        0.0000000000        0.0000000000
Pb            0.0000000000        0.5000000000        0.5000000000
Pb            0.3332314509        0.1668359827       -0.0000833856
Pb            0.3332309214        0.4999564111        0.5300949408   ! move up 0.03
Pb            0.6668639843        0.1668098086        0.0000314056
Pb            0.6667690786        0.5000435889        0.4999050592
Pb           -0.0000000000        0.5000000000        0.0000000000
Pb            0.0000691100        0.8331694480        0.4999868056
Pb            0.3332125446        0.5000207473       -0.0000054756
Pb            0.3331184167        0.8331181631        0.5000929500
Pb            0.6667874554        0.4999792527        0.0000054756
Pb            0.6667025228        0.8331436890        0.4998962740
Pb            0.0001226553        0.8331945252       -0.0001468530
Pb            0.3331360157        0.8331901914       -0.0000314056
Pb           -0.0000691100        0.1668305520        0.5000131944
Pb            0.6667685491        0.8331640173        0.0000833856
Pb            0.3332974772        0.1668563110        0.5001037260
Pb            0.6668815833        0.1668818369        0.4999070500
Pb            0.1665458824        0.3335518947        0.7497934069
Pb            0.5000153147       -0.0000318746        0.2502079274
Pb            0.4999708381        0.3335427093        0.7497497859
Pb            0.8334209740        0.0000385769        0.2501481521
Pb            0.8334170414        0.3335534328        0.7498445306
Pb            0.1665340355        0.3335390336        0.2502624998
Pb            0.1665752687        0.6665117671        0.7496736120
Pb            0.4999881743        0.3335184550        0.2503286575
Pb            0.5000118257        0.6664815450        0.7496713425
Pb            0.8334247313        0.3334882329        0.2503263880
Pb            0.8334659645        0.6664609664        0.7497375002
Pb            0.1665829586        0.6664465672        0.2501554694
Pb            0.5000291619        0.6664572907        0.2502502141
Pb            0.1665790260       -0.0000385769        0.7498518479
Pb            0.8334541176        0.6664481053        0.2502065931
Pb            0.4999846853        0.0000318746        0.7497920726
Pb            0.8334234434        0.0000597494        0.7498339363
Pb            0.1665275577        0.5000103243        0.7498264549
Pb            0.5001350335        0.1668148595        0.2502048846
Pb            0.4999867573        0.4999634358        0.7497101360
Pb            0.8333570722        0.1668633107        0.2502263407
Pb            0.8334586036        0.5000692471        0.7498383024
Pb            0.1665413964        0.4999307529        0.2501616976
Pb            0.1666429278        0.8331366893        0.7497736593
Pb            0.5000132427        0.5000365642        0.2502898640
Pb            0.4998649665        0.8331851405        0.7497951154
Pb            0.8334724423        0.4999896757        0.2501735451
Pb            0.8335324246        0.8330657989        0.7499381953
Pb            0.1665705731        0.8332168201        0.2502753846
Pb            0.4998869232        0.8331706528        0.2503834744
Pb            0.1664545562        0.1667687294        0.7496599348
Pb            0.8335454438        0.8332312706        0.2503400652
Pb            0.5001130768        0.1668293472        0.7496165256
Pb            0.8334294269        0.1667831799        0.7497246154
Pb            0.0000298513        0.3335080112        0.4997438993
Pb            0.3332355713       -0.0000570087       -0.0000349908
Pb            0.3332089515        0.3335842412        0.4998773785
Pb            0.6667644287        0.0000570087        0.0000349908
Pb            0.6667159351        0.3335010851        0.4996693544
Pb            0.0000366475        0.3335434283        0.0001583886
Pb           -0.0000298513        0.6664919888        0.5002561007
Pb            0.3331771502        0.3335254587        0.0000730117
Pb            0.3332840649        0.6664989149        0.5003306456
Pb            0.6667846554        0.3335300063        0.0001512815
Pb            0.6667910485        0.6664157588        0.5001226215
Pb           -0.0000366475        0.6664565717       -0.0001583886
Pb            0.3332153446        0.6664699937       -0.0001512815
Pb            0.0000000000        0.0000000000        0.5000000000
Pb            0.6668228498        0.6664745413       -0.0000730117
Pb            0.3332759738       -0.0000600839        0.5001674744
Pb            0.6667240262        0.0000600839        0.4998325256
Cs            0.1862939130        0.0832847795        0.0087014797
Cs            0.3137542042        0.2499363295        0.2586386552
Cs            0.1471400846        0.2499223536        0.4914111011
Cs            0.0196218966        0.0833085923        0.2413714175
Cs            0.1861837152        0.4166273913        0.5085262234
Cs            0.5196130954        0.0832772872        0.0086027369
Cs            0.5194974954        0.4166275495        0.5084776735
Cs            0.8529151372        0.0832936360        0.0086911169
Cs            0.8528064748        0.4166294453        0.5086148548
Cs            0.1862607506        0.4166372416        0.0086293270
Cs            0.1862864579        0.7500809828        0.5085971900
Cs            0.5195849685        0.4166335070        0.0086378473
Cs            0.5195235384        0.7500665429        0.5085273070
Cs            0.8528903330        0.4166109851        0.0085839841
Cs            0.8528599154        0.7500776464        0.5085888989
Cs            0.1862709401        0.7500884604        0.0086475087
Cs            0.5196436123        0.7500861927        0.0086066740
Cs            0.1863057908        0.0833082565        0.5085539178
Cs            0.8529481401        0.7500831829        0.0086145798
Cs            0.5195106570        0.0832951448        0.5086305053
Cs            0.8528468068        0.0832854436        0.5085948768
Cs            0.3138797162        0.5833911204        0.7585261481
Cs            0.6470744607        0.2499418713        0.2584862920
Cs            0.6471094831        0.5833844376        0.7586869665
Cs            0.9804367939        0.2499112652        0.2585218619
Cs            0.9804990373        0.5833621752        0.7586199637
Cs            0.3137233133        0.5833665438        0.2585955256
Cs            0.3138079685        0.9166844800        0.7585633809
Cs            0.6470913283        0.5833736806        0.2584536110
Cs            0.6470305559        0.9167108976        0.7587544013
Cs            0.9804480715        0.5833946074        0.2586119578
Cs            0.9803781034        0.9166914077        0.7586285825
Cs            0.3137621003        0.9166908377        0.2586764085
Cs            0.6470367249        0.9166814227        0.2584823463
Cs            0.3138519170        0.2499206987        0.7585254299
Cs            0.9803760966        0.9166940926        0.2586551313
Cs            0.6470666770        0.2499086733        0.7587050062
Cs            0.9804193483        0.2499529752        0.7587151538
Cs            0.1471096670        0.5833890149        0.9914160159
Cs            0.4804764616        0.2499334571        0.4914726930
Cs            0.4804150315        0.5833664930        0.9913621527
Cs            0.8137135421        0.2499190172        0.4914028100
Cs            0.8137392494        0.5833627584        0.9913706730
Cs            0.1471935252        0.5833705547        0.4913851452
Cs            0.1470848628        0.9167063640        0.9913088831
Cs            0.4805025046        0.5833724505        0.4915223265
Cs            0.4803869046        0.9167227128        0.9913972631
Cs            0.8138162848        0.5833726087        0.4914737766
Cs            0.8137060870        0.9167152205        0.9912985203
Cs            0.1471531932        0.9167145564        0.4914051232
Cs            0.4804893430        0.9167048552        0.4913694947
Cs            0.1470518599        0.2499168171        0.9913854202
Cs            0.8136942092        0.9166917435        0.4914460822
Cs            0.4803563877        0.2499138073        0.9913933260
Cs            0.8137290599        0.2499115396        0.9913524913
Cs            0.0195519285        0.4166053926        0.7413880422
Cs            0.3529694441        0.0832891024        0.2412455987
Cs            0.3529086717        0.4166263194        0.7415463890
Cs            0.6861920315        0.0833155200        0.2414366191
Cs            0.6862766867        0.4166334562        0.7414044744
Cs            0.0195009627        0.4166378248        0.2413800363
Cs            0.0195632061        0.7500887348        0.7414781381
Cs            0.3528905169        0.4166155624        0.2413130335
Cs            0.3529255393        0.7500581287        0.7415137080
Cs            0.6861202838        0.4166088796        0.2414738519
Cs            0.6862457958        0.7500636705        0.7413613448
Cs            0.0195806517        0.7500470248        0.2412848462
Cs            0.3529333230        0.7500913267        0.2412949938
Cs            0.0196239034        0.0833059074        0.7413448687
Cs            0.6861480830        0.7500793013        0.2414745701
Cs            0.3529632751        0.0833185773        0.7415176537
Cs            0.6862378997        0.0833091623        0.7413235915
Br            0.3332309214        0.4999564111        0.4700949408   ! Interstitial, move down
Br            0.0987975978        0.1549009264        0.1003407240
Br            0.0678922395        0.3215525808        0.3502899204
Br            0.0678799948        0.1784439718        0.3502237313
Br            0.2346285323        0.3216111599        0.3995578226
Br            0.2345226428        0.1783968335        0.3997318885
Br            0.2652884173        0.0116727195        0.1495684450
Br            0.2652446090        0.1549622758        0.1497096572
Br            0.0988574850        0.0117421351        0.1004005633
Br            0.0986225970        0.4882859503        0.6002173035
Br            0.4320453933        0.1549308528        0.1003609113
Br            0.4321975090        0.4881992471        0.6000268183
Br            0.7653668436        0.1548545100        0.1003895135
Br            0.7654026162        0.4883063027        0.6003968729
Br            0.0988644536        0.4882180792        0.1003232348
Br            0.0985956058        0.8216154142        0.6002040021
Br            0.4320074751        0.4883451311        0.1004480332
Br            0.4321047840        0.8215586162        0.6000224028
Br            0.7654405190        0.4882520071        0.1002337842
Br            0.7654773572        0.8216031665        0.6002681115
Br            0.0988205012        0.8216348471        0.1003998729
Br            0.4320227784        0.8216801143        0.1003249991
Br            0.0986031684        0.1549222349        0.6003106788
Br            0.7654986941        0.8215496141        0.1002795754
Br            0.4320924003        0.1548470626        0.6001131311
Br            0.7654813009        0.1548659031        0.6004281788
Br            0.0678428765        0.6548837155        0.8501336352
Br            0.4014586459        0.3216471403        0.3503816414
Br            0.4011635936        0.6549358362        0.8500820599
Br            0.7346279782        0.3215594366        0.3502712015
Br            0.7346154841        0.6549566567        0.8503089932
Br            0.0679596361        0.6549799718        0.3503699641
Br            0.0678707788        0.9882220854        0.8503649209
Br            0.4012627583        0.6549770687        0.3504246167
Br            0.4011340839        0.9881432345        0.8500369062
Br            0.7345216343        0.6549432080        0.3501612272
Br            0.7347115827        0.9883272805        0.8504315550
Br            0.0679515670        0.9882349786        0.3502402914
Br            0.4013861674        0.9882776240        0.3504379521
Br            0.0679650481        0.3216136674        0.8505095408
Br            0.7345181556        0.9882320331        0.3502293755
Br            0.4010729172        0.3215181387        0.8502137899
Br            0.7346276981        0.3215837471        0.8502242588
Br            0.0679030923        0.5118319027        0.8502548593
Br            0.4013748878        0.1783510685        0.3503734068
Br            0.4011199200        0.5117551318        0.8501892727
Br            0.7345892006        0.1783502643        0.3501770105
Br            0.7345859685        0.5117295695        0.8502641902
Br            0.0679360495        0.5116429516        0.3503399809
Br            0.0679089696        0.8451143808        0.8503462413
Br            0.4013389191        0.5117022355        0.3503722254
Br            0.4011228749        0.8452272032        0.8500699234
Br            0.7346008734        0.5117337033        0.3502288157
Br            0.7347553910        0.8450377242        0.8502903428
Br            0.0679907595        0.8451374682        0.3504209819
Br            0.4013523331        0.8450670377        0.3505245384
Br            0.0678893158        0.1783386296        0.8504829824
Br            0.7345027369        0.8451555678        0.3502001264
Br            0.4010910928        0.1784370753        0.8500363125
Br            0.7346531073        0.1783536857        0.8503255131
Br            0.2345767942        0.6549154047        0.8997365447
Br            0.5678516194        0.3215173713        0.3998930007
Br            0.5679415126        0.6550361321        0.8995738415
Br            0.9014415453        0.3215675258        0.3997116225
Br            0.9011578689        0.6549141758        0.8997296465
Br            0.2345220120        0.6549770589        0.3997107075
Br            0.2346367716        0.9882132577        0.8997629616
Br            0.5678285448        0.6548742796        0.3999954933
Br            0.5679420605        0.9882904865        0.8996210438
Br            0.9013139602        0.6549519643        0.3998451913
Br            0.9011425150        0.9882578649        0.8995994367
Br            0.2345460590        0.9881830330        0.3997706022
Br            0.5679247584        0.9882211942        0.3998313237
Br            0.2345478631        0.3215309982        0.8997018814
Br            0.9013529548        0.9882944561        0.3996924380
Br            0.5680568467        0.3216333522        0.8995831274
Br            0.9011507651        0.3215812280        0.8996087082
Br            0.2345594810        0.5117479929        0.8997662158
Br            0.5678952160        0.1784413838        0.3999775972
Br            0.5679925249        0.5116548689        0.8995519668
Br            0.9014043942        0.1783845858        0.3997959979
Br            0.9011355464        0.5117819208        0.8996767652
Br            0.2345973838        0.5116936973        0.3996031271
Br            0.2346331564        0.8451454900        0.8996104865
Br            0.5678024910        0.5118007529        0.3999731817
Br            0.5679546067        0.8450691472        0.8996390887
Br            0.9013774030        0.5117140497        0.3997826965
Br            0.9012024022        0.8450990736        0.8996592760
Br            0.2345186991        0.8451340969        0.3995718212
Br            0.5679075997        0.8451529374        0.3998868689
Br            0.2345013059        0.1784503859        0.8997204246
Br            0.9013968316        0.8450777651        0.3996893212
Br            0.5679772216        0.1783198857        0.8996750009
Br            0.9011794988        0.1783651529        0.8996001271
Br            0.2654783657        0.3450567920        0.6498387728
Br            0.5988659161        0.0118567655        0.1499630938
Br            0.5987372417        0.3450229313        0.6495753833
Br            0.9321292212        0.0117779146        0.1496350791
Br            0.9320403639        0.3450200282        0.6496300359
Br            0.2653845159        0.3450433433        0.1496910068
Br            0.2653720218        0.6784405634        0.6497287985
Br            0.5988364064        0.3450641638        0.1499179401
Br            0.5985413541        0.6783528597        0.6496183586
Br            0.9321571235        0.3451162845        0.1498663648
Br            0.9321077605        0.6784474192        0.6497100796
Br            0.2653723019        0.6784162529        0.1497757412
Br            0.5989270828        0.6784818613        0.1497862101
Br            0.2654818444        0.0117679669        0.6497706245
Br            0.9320349519        0.6783863326        0.1494904592
Br            0.5986138326        0.0117223760        0.6495620479
Br            0.9320484330        0.0117650214        0.6497597086
Br            0.2653991266        0.4882662967        0.6497711843
Br            0.5988771251        0.1547727968        0.1499300766
Br            0.5986610809        0.4882977645        0.6496277746
Br            0.9320910304        0.1548856192        0.1496537587
Br            0.9320639505        0.4883570484        0.6496600191
Br            0.2654140315        0.4882704305        0.1497358098
Br            0.2654107994        0.8216497357        0.6498229895
Br            0.5988800800        0.4882448682        0.1498107273
Br            0.5986251122        0.8216489315        0.6496265932
Br            0.9320969077        0.4881680973        0.1497451407
Br            0.9321200052        0.8215560282        0.6497762687
Br            0.2653468927        0.8216463143        0.1496744869
Br            0.5989089072        0.8215629247        0.1499636875
Br            0.2654972631        0.1548444322        0.6497998736
Br            0.9321106842        0.8216613704        0.1495170176
Br            0.5986476669        0.1549329623        0.6494754616
Br            0.9320092405        0.1548625318        0.6495790181
Br            0.0986860398        0.3450480357        0.6001548087
Br            0.4320579395        0.0117095135        0.1003789562
Br            0.4321714552        0.3451257204        0.6000045067
Br            0.7653632284        0.0117867423        0.1002370384
Br            0.7654779880        0.3450229411        0.6002892925
Br            0.0988421311        0.3450858242        0.1002703535
Br            0.0985584547        0.6784324742        0.6002883775
Br            0.4320584874        0.3449638679        0.1004261585
Br            0.4321483806        0.6784826287        0.6001069993
Br            0.7654232058        0.3450845953        0.1002634553
Br            0.7653714677        0.6783888401        0.6004421774
Br            0.0988492349        0.6784187720        0.1003912918
Br            0.4319431533        0.6783666478        0.1004168726
Br            0.0986470452        0.0117055439        0.6003075620
Br            0.7654521369        0.6784690018        0.1002981186
Br            0.4320752416        0.0117788058        0.6001686763
Br            0.7654539410        0.0118169670        0.6002293978
Br            0.0039390905        0.2500388184        0.0337307360
Br            0.1627185207        0.0833769927        0.2836476739
Br            0.3294888203        0.0833692484        0.4665446372
Br            0.1704639664        0.2500600826        0.2163243915
Br            0.0037892347        0.5832913351        0.5336828611
Br            0.3371257544        0.2500661142        0.0336053700
Br            0.3373318804        0.5833049392        0.5335279228
Br            0.6705329951        0.2500836206        0.0337819978
Br            0.6704747834        0.5832818712        0.5334109960
Br            0.0038182420        0.5833255683        0.0334913848
Br            0.0039102936        0.9166219057        0.5336447913
Br            0.3371072531        0.5833178448        0.0335728168
Br            0.3372647483        0.9166214700        0.5338117070
Br            0.6706084100        0.5832861067        0.0337211815
Br            0.6705111797        0.9166307516        0.5334553628
Br            0.0038906245        0.9166501687        0.0337243213
Br            0.3371165369        0.9166105632        0.0336575804
Br            0.0038121728        0.2500975604        0.5334440269
Br            0.6706062864        0.9166171295        0.0338843337
Br            0.3373298127        0.2500779682        0.5337132657
Br            0.6704803109        0.2500827518        0.5334410283
Br            0.1628734548        0.4166976241        0.7836836121
Br            0.4962658974        0.0833718104        0.2838664040
Br            0.4960688312        0.4167006650        0.7833503882
Br            0.8293717457        0.0833702702        0.2836586929
Br            0.8294862905        0.4166830531        0.7836927858
Br            0.1628311308        0.4167174911        0.2834650386
Br            0.1627779003        0.7499252057        0.7834953230
Br            0.4961410958        0.4166933392        0.2837756626
Br            0.4960581996        0.7499308703        0.7834286307
Br            0.8294698229        0.4167091513        0.2834265312
Br            0.8295360336        0.7499399174        0.7836756085
Br            0.1628649099        0.7499081714        0.2837090378
Br            0.4961767439        0.7499352013        0.2838073526
Br            0.1627905551        0.0833818425        0.7836442252
Br            0.8293503201        0.7499140339        0.2836045403
Br            0.4960020709        0.0833565724        0.7835793653
Br            0.8295633444        0.0833836790        0.7838113312
Br            0.3293915900        0.4167138933        0.9662788185
Br            0.6627352517        0.0833785300        0.4661882930
Br            0.6628927469        0.4166821552        0.9664271832
Br            0.9960897064        0.0833780943        0.4663552087
Br            0.9961817580        0.4166744317        0.9665086152
Br            0.3295252166        0.4167181288        0.4665890040
Br            0.3294670049        0.7499163794        0.9662180022
Br            0.6626681196        0.4166950608        0.4664720772
Br            0.6628742456        0.7499338858        0.9663946300
Br            0.9962107653        0.4167086649        0.4663171389
Br            0.9960609095        0.7499611816        0.9662692640
Br            0.3295196891        0.7499172482        0.4665589717
Br            0.6626701873        0.7499220318        0.4662867343
Br            0.3293937136        0.0833828705        0.9661156663
Br            0.9961878272        0.7499024396        0.4665559731
Br            0.6628834631        0.0833894368        0.9663424196
Br            0.9961093755        0.0833498313        0.9662756787
Br            0.1705301771        0.5832908487        0.7165734688
Br            0.5039418004        0.2500691297        0.2165713693
Br            0.5038589042        0.5833066608        0.7162243374
Br            0.8372220997        0.2500747943        0.2165046770
Br            0.8371688692        0.5832825089        0.7165349614
Br            0.1705137095        0.5833169469        0.2163072142
Br            0.1706282543        0.9166297298        0.7163413071
Br            0.5039311688        0.5832993350        0.2166496118
Br            0.5037341026        0.9166281896        0.7161335960
Br            0.8371265452        0.5833023759        0.2163163879
Br            0.8372814793        0.9166230073        0.7163523261
Br            0.1704366556        0.9166163210        0.2161886688
Br            0.5039979291        0.9166434276        0.2164206347
Br            0.1706496799        0.2500859661        0.7163954597
Br            0.8372094449        0.9166181575        0.2163557748
Br            0.5038232561        0.2500647987        0.7161926474
Br            0.8371350901        0.2500918286        0.7162909622
K_POINTS gamma
CELL_PARAMETERS {alat}
   3.102019160   0.000000787   0.000003697  ! from 12_output/332/cspbbr3_vcrelax_output.out
   0.000001097   4.343709361  -0.000001174
   0.000002353  -0.000000544   1.997081573
