BEGIN
BEGIN_PATH_INPUT
&PATH
restart_mode      = 'from_scratch'
string_method     = 'neb',
nstep_path        = 1000,
ds                = 0.0756D0,
opt_scheme        = "broyden",
num_of_images	  = 10,
k_max             = 0.0131D0,
k_min             = 0.005D0,
CI_scheme         = "no-CI",
path_thr          = 0.001D0,
first_last_opt    = .true.
/
END_PATH_INPUT
BEGIN_ENGINE_INPUT
&CONTROL
  etot_conv_thr =   1.0000000000d-04
  forc_conv_thr =   1.0000000000d-03
  outdir = './out/'
  prefix = 'cspbbr3_v40_i16'
  pseudo_dir = '../pseudo/'
  verbosity = 'high'
/
&SYSTEM
  degauss =   0.01
  ecutrho =   400
  ecutwfc =   40
  ibrav = 0
  A =    8.24400
  nat = 40
  ntyp = 3
  occupations = 'smearing'
  smearing = 'cold'
/
&ELECTRONS
  conv_thr =   1.0000000000d-06
  electron_maxstep = 200
  mixing_beta =   0.4
/
&ions
  ion_dynamics='bfgs'
/
&cell
  cell_dynamics='bfgs',
  press=0.0,
  press_conv_thr=0.5,
ATOMIC_SPECIES
Br     79.904 br_pbe_v1.4.uspp.F.UPF
Cs     132.9054519 cs_pbe_v1.uspp.F.UPF
Pb     207.2 pb_pbe_v1.uspp.F.UPF
BEGIN_POSITIONS
FIRST_IMAGE
ATOMIC_POSITIONS (crystal)
Pb           -0.0218379786        0.4961223221       -0.0304127915 ! atom coordinates from "Defect Formation - 2.1 Recombination" output 
Pb            0.2532985114       -0.0036648576        0.5827910315
Pb            0.2455830600        0.5100757595        0.5893705812
Pb            0.0024725468        0.0123757440        0.0074913158
Pb            0.5187213412        0.4969393472        0.0514246375
Pb            0.7431055096        0.0176244688        0.5113811872
Pb            0.7329133769        0.4815988116        0.4705898911
Pb            0.5049094947       -0.0044432164        0.0720920914
Cs            0.2822455294        0.2485732935        0.0362225329
Cs            0.4629153222        0.7294412594        0.5513117116
Cs            0.2086630204        0.7139899600        1.0465042711
Cs            0.0254216831        0.2864627795        0.4574339278
Cs            0.7777491218        0.2225512427        0.0048941254
Cs            0.9839384156        0.7902819285        0.4903423076
Cs            0.7264460490        0.7436306792        0.9286647716
Cs            0.5081810050        0.2037128205        0.5626232601
Br            0.1053395882        0.4353262694        0.1200208087
Br            0.1166830687        0.9240139655        0.7524101927
Br            0.0792399710        0.5564795207        0.6800264827
Br            0.3535056381        0.9479148626        0.8174850085
Br            0.3525247625        0.5366731988        0.8396198036
Br            0.3899618879        0.0532143553        0.3027137984
Br            0.2907911590        0.4884868468        0.2825401037
Br            0.1210893809        0.0568473183        0.2012302538
Br            0.6778068617        0.4843572414        0.1202311037
Br            0.6127808542        0.9451791416        0.7057600420
Br            0.6161306896        0.5567262753        0.7003953657
Br            0.8444591884        0.9555087534        0.7439183846
Br            0.8443998729        0.5771764770        0.6522849217
Br            0.8874092972        0.0398409211        0.2720982664
Br            0.8777107805        0.4256066506        0.2451938800
Br            0.6299104400        0.0769572238        0.2421697648
Br           -0.0049928438        0.7356561147        0.0864940611
Br            0.2215616455        0.2669948906        0.6413506348
Br            0.4987580685        0.2589110373        0.9580173694
Br            0.2646030030        0.7818127515        0.4279608960
Br            0.4987597954        0.4576867422        0.3629496476
Br            0.7244635364        0.2514043070        0.6084737042
Br            0.9727066825        0.2281891115        0.8483556393
Br            0.5502513670        0.7726993517        0.1745271880

LAST_IMAGE
ATOMIC_POSITIONS (crystal)
Pb           -0.0000000000        0.5000000000       -0.0000000000  ! atom coordinates from "Bulk Relaxation" output, which is the pristine bulk structure
Pb            0.2500031199       -0.0000008205        0.5000015863
Pb            0.2500037833        0.4999980933        0.5000054899
Pb            0.0000000000        0.0000000000        0.0000000000
Pb            0.5000000000        0.5000000000        0.0000000000
Pb            0.7499968801        0.0000008205        0.4999984137
Pb            0.7499962167        0.5000019067        0.4999945101
Pb            0.5000000000        0.0000000000       -0.0000000000
Cs            0.2796204164        0.2499994710        0.0164482841
Cs            0.4703770253        0.7500006501        0.5164456660
Cs            0.2203763504        0.7499991000        0.9835580936
Cs            0.0296211430        0.2500007445        0.4835529257
Cs            0.7796236496        0.2500009000        0.0164419064
Cs            0.9703788570        0.7499992555        0.5164470743
Cs            0.7203795836        0.7500005290        0.9835517159
Cs            0.5296229747        0.2499993499        0.4835543340
Br            0.1425182563        0.4486940468        0.2154164716
Br            0.1074845606        0.9486906162        0.7154107380
Br            0.1074843367        0.5513094307        0.7154113968
Br            0.3574802884        0.9486900313        0.7845858926
Br            0.3574804302        0.5513111448        0.7845869798
Br            0.3925165504        0.0513106635        0.2845930849
Br            0.3925161330        0.4486897717        0.2845923291
Br            0.1425182477        0.0513075380        0.2154154029
Br            0.6425195698        0.4486888552        0.2154130202
Br            0.6074834496        0.9486893365        0.7154069151
Br            0.6074838670        0.5513102283        0.7154076709
Br            0.8574817523        0.9486924620        0.7845845971
Br            0.8574817437        0.5513059532        0.7845835284
Br            0.8925154394        0.0513093838        0.2845892620
Br            0.8925156633        0.4486905693        0.2845886032
Br            0.6425197116        0.0513099687        0.2154141074
Br            0.0128179399        0.7499997846        0.1108078028
Br            0.2371794910        0.2500021224        0.6108096986
Br            0.4871817256        0.2500001720        0.8891906366
Br            0.2628176319        0.7500026363        0.3891957726
Br            0.5128182744        0.7499998280        0.1108093634
Br            0.7371823681        0.2499973637        0.6108042274
Br            0.9871820601        0.2500002154        0.8891921972
Br            0.7628205090        0.7499978776        0.3891903014
END_POSITIONS
K_POINTS gamma
CELL_PARAMETERS (alat= 15.57890217)
   2.032246901   0.000001261   0.000005354  ! from "Bulk Relaxation" output
   0.000000855   1.417925355   0.000001145
   0.000002468   0.000000774   1.043329534
END_ENGINE_INPUT
END
