BEGIN
BEGIN_PATH_INPUT
&PATH
restart_mode      = 'from_scratch'
string_method     = 'neb',
nstep_path        = 1000,
ds                = 0.0756D0,
opt_scheme        = "broyden",
num_of_images	  = 10,
k_max             = 0.0131D0,
k_min             = 0.005D0,
CI_scheme         = "no-CI",
path_thr          = 0.001D0,
first_last_opt    = .true.
/
END_PATH_INPUT
BEGIN_ENGINE_INPUT
&CONTROL
  etot_conv_thr =   1.0000000000d-04
  forc_conv_thr =   1.0000000000d-03
  outdir = './out/'
  prefix = 'cspbbr3_i1-8_pb2-6'
  pseudo_dir = '../pseudo/'
  verbosity = 'high'
/
&SYSTEM
  degauss =   0.01
  ecutrho =   400
  ecutwfc =   40
  ibrav = 0
  A =    8.24400
  nat = 41
  ntyp = 3
  occupations = 'smearing'
  smearing = 'cold'
/
&ELECTRONS
  conv_thr =   1.0000000000d-06
  electron_maxstep = 200
  mixing_beta =   0.4
/
&ions
  ion_dynamics='bfgs'
/
&cell
  cell_dynamics='bfgs',
  press=0.0,
  press_conv_thr=0.5,
ATOMIC_SPECIES
Br     79.904 br_pbe_v1.4.uspp.F.UPF
Cs     132.9054519 cs_pbe_v1.uspp.F.UPF
Pb     207.2 pb_pbe_v1.uspp.F.UPF
BEGIN_POSITIONS
FIRST_IMAGE
ATOMIC_POSITIONS (crystal)
Pb           -0.0103129754        0.5078581783       -0.0146615939   ! atom coordinates from "Defect Formation - 2.2 Migration" section output 
Pb            0.2509368590       -0.0055284168        0.5383146239
Pb            0.2462216447        0.5033543846        0.5868517830
Pb            0.0002488863        0.0137134201        0.0044647716
Pb            0.5095622318        0.4949589535        0.0021160033
Pb            0.7512646546       -0.0011814839        0.5273912756
Pb            0.7497884610        0.5115484606        0.4850798068
Pb            0.5075294425        0.0009024038        0.0352806713
Cs            0.2791595004        0.2210589356        0.0298448976
Cs            0.4700708483        0.7540729594        0.5387450657
Cs            0.2234375367        0.7586941065        1.0362071565
Cs            0.0288889441        0.2578397577        0.4645641744
Cs            0.7804150819        0.2509947990        0.0145094646
Cs            0.9716560644        0.7661552914        0.4985050649
Cs            0.7168940863        0.7444905811        0.9828264532
Cs            0.5334734630        0.2286052714        0.5098524896
Br            0.4571084658        0.4766466824        0.3305342202  !#8, I on Pb7
Br            0.1197244480        0.4317651086        0.1505938269
Br            0.1110880265        0.9396064319        0.7247754523
Br            0.0825001402        0.5476373998        0.6808881941
Br            0.3493001583        0.9562653323        0.7943894447
Br            0.3492099135        0.5518425004        0.8418194132
Br            0.3964505169        0.0486628761        0.2953009881
Br            0.2880098092        0.4756623759        0.2522571033  ! I on Pb3
Br            0.1276969769        0.0450049583        0.2142199967
Br            0.6549530732        0.4651388043        0.1801348406
Br            0.6090759751        0.9464932883        0.7235603383
Br            0.6035286476        0.5450988753        0.6966858976
Br            0.8542800862        0.9417844437        0.7716238397
Br            0.8438004564        0.5467549870        0.7607032723
Br            0.8891671317        0.0509926971        0.2736418714
Br            0.8909182053        0.4488865176        0.2760798233
Br            0.6379673002        0.0546724475        0.2142947566
Br            0.0158875713        0.7334540486        0.0902805971
Br            0.2180533860        0.2720364656        0.6492181649
Br            0.4824831348        0.2662622082        0.9102257097
Br            0.2618504764        0.7728541432        0.4362580904
Br            0.5129197386        0.7687884053        0.1260068872
Br            0.7352106344        0.2310856458        0.6122500547
Br            0.9801617016        0.2340014252        0.8733172820
Br            0.7694192965        0.7410643293        0.3810478267
LAST_IMAGE
ATOMIC_POSITIONS (crystal)
Pb            0.0193104798        0.4839023683       -0.0125734703  ! atom coordinates from "Bulk Relaxation" output, which is the pristine bulk structure
Pb            0.2416800772       -0.0065444529        0.5182576060
Pb            0.2590327819        0.5165884650        0.4752752343
Pb            0.0025963707       -0.0085201804        0.0349442704
Pb            0.4911206901        0.5158786061       -0.0105888595
Pb            0.7489087213        0.0029367464        0.5509334338
Pb            0.7152052397        0.4731066839        0.6950873230
Pb            0.5003381337        0.0191895099        0.0056832804
Cs            0.2734376899        0.2387535473       -0.0022691632
Cs            0.4832784195        0.7664150280        0.4778313898
Cs            0.2275933959        0.7570321941        0.9748624201
Cs            0.0339697140        0.2473791685        0.4914744022
Cs            0.7922161654        0.2549759053        0.0862280621
Cs            0.9593172251        0.7141851149        0.5102833200
Cs            0.7302279435        0.7792857671        1.0384101985
Cs            0.5122119040        0.2398964704        0.4844062198
Br            0.7191714722        0.4909759478        0.3962263045  ! Br_interstitial originally on Pb6
Br            0.1731969445        0.4739106700        0.1625386873
Br            0.1082529934        0.9425283307        0.7134317042
Br            0.1081154928        0.5238012145        0.6583111591
Br            0.3585743629        0.9443554248        0.7670836839
Br            0.3327100379        0.5358516620        0.7848205515
Br            0.3862014920        0.0446766497        0.2535325651
Br            0.4144927576        0.4662982413        0.3037692697
Br            0.1439428488        0.0590868879        0.2171915582
Br            0.6653353028        0.4886073558        0.0379898765
Br            0.6091795937        0.9452886939        0.7233292009
Br            0.5408707889        0.5263336249        0.6734462016
Br            0.8528986418        0.9521272271        0.8091742741
Br            0.8697670159        0.5578017151        0.8251331088
Br            0.8966978118        0.0431815455        0.2890444754
Br            0.9371333054        0.4489467958        0.2564217305
Br            0.6371335010        0.0653385353        0.2277436848
Br            0.0177985808        0.7716877180        0.1141395354
Br            0.2462438663        0.2206817024        0.5915822474
Br            0.4860087356        0.2335159733        0.9001667042
Br            0.2670035242        0.7387692435        0.3938835693
Br            0.5090544877        0.7423944918        0.0716923917
Br            0.7267587953        0.2410495155        0.6762123737
Br            1.0024511611        0.2605058042        0.8963470620
Br            0.7505615334        0.7878240874        0.4385424127
END_POSITIONS
K_POINTS gamma
CELL_PARAMETERS (alat= 15.57890217)
   2.091225648  -0.011566031   0.037709681  ! from "Bulk Relaxation" output
  -0.008122522   1.447875737   0.009314970
   0.018989780   0.006592707   1.056716061
END_ENGINE_INPUT
END
